; Filename: networks/Rede_de_Monte_Carlo.inp
; WNTR: 1.4.0
; Created: 2026-05-17 20:59:59
[TITLE]
prueba

[JUNCTIONS]
;ID                      Elevation       Demand Pattern                 
 n1                            703.99           0.024 1                          ;
 n10                          710.913           0.004 1                          ;
 n100                          700.76           0.095 1                          ;
 n101                         689.326               0 1                          ;
 n102                         712.496           1.124 1                          ;
 n103                          712.49           0.044 1                          ;
 n104                          710.52           0.008 1                          ;
 n105                         711.007           0.004 1                          ;
 n106                         711.991            0.01 1                          ;
 n107                         704.983               0 1                          ;
 n108                         716.674               0 1                          ;
 n109                         722.513           0.014 1                          ;
 n11                          710.573           0.003 1                          ;
 n110                         722.324           0.035 1                          ;
 n111                         704.431           0.027 1                          ;
 n112                         704.846           0.007 1                          ;
 n113                         709.393            0.04 1                          ;
 n114                         715.938               0 1                          ;
 n115                         712.588               0 1                          ;
 n116                         712.339               0 1                          ;
 n117                         716.158               0 1                          ;
 n118                         716.177               0 1                          ;
 n119                         716.257               0 1                          ;
 n12                           724.21               0 1                          ;
 n120                         708.063               0 1                          ;
 n121                         707.795           0.011 1                          ;
 n122                         712.316               0 1                          ;
 n123                         708.389           0.003 1                          ;
 n124                         718.265               0 1                          ;
 n125                         716.539               0 1                          ;
 n126                         713.558               0 1                          ;
 n127                          713.15           0.016 1                          ;
 n128                         717.743           0.024 1                          ;
 n129                         716.238           0.008 1                          ;
 n13                          724.107               0 1                          ;
 n130                         704.875           0.049 1                          ;
 n131                         709.835           0.008 1                          ;
 n132                         709.727               0 1                          ;
 n133                         709.741               0 1                          ;
 n134                          713.13           0.012 1                          ;
 n135                         703.361           0.008 1                          ;
 n136                         703.178               0 1                          ;
 n137                         703.344               0 1                          ;
 n138                         697.975           0.002 1                          ;
 n139                         697.937               0 1                          ;
 n14                           710.82           0.051 1                          ;
 n140                          697.79               0 1                          ;
 n141                         704.862               0 1                          ;
 n142                         718.176           0.005 1                          ;
 n143                         708.437           0.026 1                          ;
 n144                         720.653               0 1                          ;
 n145                         720.333           0.007 1                          ;
 n146                         720.087               0 1                          ;
 n147                         717.657           0.039 1                          ;
 n148                         708.845               0 1                          ;
 n149                         717.775           0.012 1                          ;
 n15                          716.268               0 1                          ;
 n150                         718.268           0.008 1                          ;
 n151                         712.303           0.008 1                          ;
 n153                         708.728               0 1                          ;
 n154                         708.346           0.003 1                          ;
 n156                         723.108               0 1                          ;
 n157                         710.969           0.017 1                          ;
 n158                         710.766           0.071 1                          ;
 n159                          714.63               0 1                          ;
 n16                           716.06               0 1                          ;
 n160                         714.493           0.011 1                          ;
 n161                         711.717               0 1                          ;
 n162                         711.607           0.003 1                          ;
 n163                         711.837           0.024 1                          ;
 n164                         709.019           0.017 1                          ;
 n165                         709.882               0 1                          ;
 n166                         721.752           0.053 1                          ;
 n167                         721.992           0.005 1                          ;
 n168                         720.662           0.005 1                          ;
 n169                         721.003           0.017 1                          ;
 n17                          714.435           0.018 1                          ;
 n170                         720.776           0.003 1                          ;
 n171                         719.942           0.017 1                          ;
 n172                         704.699               0 1                          ;
 n173                         705.072               0 1                          ;
 n174                          703.35               0 1                          ;
 n175                         699.231               0 1                          ;
 n176                         699.554           0.041 1                          ;
 n177                         701.489           0.013 1                          ;
 n178                         701.192               0 1                          ;
 n179                         703.451               0 1                          ;
 n18                          714.656           0.014 1                          ;
 n180                         703.771           0.026 1                          ;
 n181                         705.529           0.012 1                          ;
 n182                         705.273               0 1                          ;
 n183                         707.676           0.009 1                          ;
 n184                           707.4               0 1                          ;
 n185                         708.258           0.026 1                          ;
 n186                         710.672           0.016 1                          ;
 n187                         698.604               0 1                          ;
 n188                         696.748               0 1                          ;
 n189                         701.457           0.007 1                          ;
 n19                          712.523           0.012 1                          ;
 n190                         704.029               0 1                          ;
 n191                         705.963           0.025 1                          ;
 n192                         714.603           0.014 1                          ;
 n193                         710.003           0.076 1                          ;
 n194                         722.095               0 1                          ;
 n195                          705.96            0.03 1                          ;
 n196                         706.724           0.024 1                          ;
 n198                         710.733           0.018 1                          ;
 n2                            702.43           0.125 1                          ;
 n20                          712.719           0.012 1                          ;
 n200                         724.087               0 1                          ;
 n201                         723.812               0 1                          ;
 n202                         712.605               0 1                          ;
 n203                         713.162               0 1                          ;
 n204                         704.035               0 1                          ;
 n205                         710.011           0.091 1                          ;
 n206                         706.085           0.098 1                          ;
 n207                          724.95               0 1                          ;
 n208                         716.087           0.002 1                          ;
 n209                         722.419               0 1                          ;
 n21                           716.36               0 1                          ;
 n210                         722.671               0 1                          ;
 n211                         722.684           0.013 1                          ;
 n212                          695.01           0.103 1                          ;
 n213                         694.996            0.06 1                          ;
 n214                         693.988               0 1                          ;
 n215                         694.683               0 1                          ;
 n216                         694.669               0 1                          ;
 n217                          705.02           0.031 1                          ;
 n218                         707.973               0 1                          ;
 n219                         715.785               0 1                          ;
 n220                         703.473           0.019 1                          ;
 n221                         704.993           0.032 1                          ;
 n222                         708.672               0 1                          ;
 n223                         707.994               0 1                          ;
 n224                          707.73               0 1                          ;
 n225                         712.675           0.035 1                          ;
 n226                         700.977               0 1                          ;
 n227                         699.991           0.039 1                          ;
 n228                         691.851               0 1                          ;
 n229                         693.094            0.04 1                          ;
 n23                          710.552               0 1                          ;
 n230                         684.777               0 1                          ;
 n231                         684.805               0 1                          ;
 n232                         684.816           0.068 1                          ;
 n233                         686.148           0.056 1                          ;
 n234                          687.39           0.025 1                          ;
 n235                         684.011           0.026 1                          ;
 n236                         685.099           0.068 1                          ;
 n237                         681.633           0.024 1                          ;
 n238                         682.583           0.037 1                          ;
 n239                         694.335           0.167 1                          ;
 n24                          710.316            0.02 1                          ;
 n240                         693.988           0.082 1                          ;
 n241                         695.588           0.067 1                          ;
 n242                         696.543           0.056 1                          ;
 n243                         698.166           0.034 1                          ;
 n244                         690.666           0.145 1                          ;
 n245                         691.481           0.075 1                          ;
 n246                         691.781               0 1                          ;
 n247                         689.477           0.135 1                          ;
 n248                         688.065           0.105 1                          ;
 n249                         686.504           0.093 1                          ;
 n25                          710.287               0 1                          ;
 n250                         685.736           0.059 1                          ;
 n251                         695.707            0.13 1                          ;
 n252                         698.114           0.083 1                          ;
 n253                         694.051           0.218 1                          ;
 n254                         695.144           0.113 1                          ;
 n255                         696.349            0.03 1                          ;
 n256                          697.26           0.065 1                          ;
 n257                         694.818           0.098 1                          ;
 n258                         700.329           0.058 1                          ;
 n259                         699.997           0.042 1                          ;
 n26                          710.522               0 1                          ;
 n260                         700.292            0.02 1                          ;
 n261                         698.424           0.025 1                          ;
 n262                         694.619           0.063 1                          ;
 n263                          696.83           0.051 1                          ;
 n264                         696.991           0.149 1                          ;
 n265                         702.579           0.044 1                          ;
 n266                         703.762           0.047 1                          ;
 n267                         705.248           0.043 1                          ;
 n268                         700.977           0.067 1                          ;
 n269                         701.759           0.122 1                          ;
 n27                          713.004           0.044 1                          ;
 n270                         693.613            0.09 1                          ;
 n271                         698.244           0.021 1                          ;
 n272                         699.006           0.094 1                          ;
 n273                         683.276           0.049 1                          ;
 n274                         689.605           0.198 1                          ;
 n275                         702.612           0.033 1                          ;
 n276                         698.711           0.011 1                          ;
 n277                         697.611           0.162 1                          ;
 n278                         699.409           0.121 1                          ;
 n279                          702.96           0.112 1                          ;
 n28                          709.786               0 1                          ;
 n280                         693.048            0.06 1                          ;
 n281                         685.948           0.029 1                          ;
 n282                         684.882           0.065 1                          ;
 n283                         695.868           0.076 1                          ;
 n284                         688.551           0.048 1                          ;
 n285                         697.235           0.101 1                          ;
 n286                         696.233           0.087 1                          ;
 n287                         702.467            0.06 1                          ;
 n288                         700.978           0.041 1                          ;
 n289                         691.965           0.131 1                          ;
 n29                          704.759               0 1                          ;
 n290                         700.396               0 1                          ;
 n291                         695.993           0.109 1                          ;
 n292                         700.633           0.025 1                          ;
 n293                         699.512           0.112 1                          ;
 n294                         697.962           0.193 1                          ;
 n295                         696.953           0.149 1                          ;
 n296                          696.04           0.087 1                          ;
 n297                          700.99               0 1                          ;
 n298                         700.723           0.056 1                          ;
 n299                         700.284           0.077 1                          ;
 n3                            700.67            0.08 1                          ;
 n30                          703.965               0 1                          ;
 n300                         700.611               0 1                          ;
 n301                         703.591           0.015 1                          ;
 n302                         702.763           0.039 1                          ;
 n303                         708.615           0.073 1                          ;
 n304                         708.687            0.12 1                          ;
 n305                         703.674            0.02 1                          ;
 n306                          704.99           0.125 1                          ;
 n307                         703.722           0.143 1                          ;
 n308                         705.009           0.089 1                          ;
 n309                         699.311           0.047 1                          ;
 n31                          704.914               0 1                          ;
 n310                         698.712           0.041 1                          ;
 n311                         695.957           0.068 1                          ;
 n312                         696.987           0.079 1                          ;
 n313                         696.799           0.072 1                          ;
 n314                         697.532           0.059 1                          ;
 n315                         697.997           0.061 1                          ;
 n316                         697.803           0.118 1                          ;
 n317                           701.6           0.075 1                          ;
 n318                         688.049           0.055 1                          ;
 n319                         702.992           0.044 1                          ;
 n32                          704.911               0 1                          ;
 n320                         704.827           0.091 1                          ;
 n321                          702.75               0 1                          ;
 n322                         701.902           0.037 1                          ;
 n323                         686.533           0.106 1                          ;
 n324                         684.736           0.047 1                          ;
 n325                         684.761               0 1                          ;
 n326                             696            0.03 1                          ;
 n327                         712.114               0 1                          ;
 n328                         707.721           0.027 1                          ;
 n329                         707.755           0.027 1                          ;
 n33                          703.993           0.036 1                          ;
 n330                         708.561           0.132 1                          ;
 n331                         708.467           0.093 1                          ;
 n332                         708.535               0 1                          ;
 n333                         707.994           0.063 1                          ;
 n334                         700.548           0.023 1                          ;
 n335                         700.415               0 1                          ;
 n336                         706.144           0.017 1                          ;
 n337                         702.387           0.023 1                          ;
 n338                         699.356           0.043 1                          ;
 n339                         701.297           0.309 1                          ;
 n34                          718.953               0 1                          ;
 n340                         699.002               0 1                          ;
 n341                         696.052               0 1                          ;
 n342                         702.982               0 1                          ;
 n343                         694.485               0 1                          ;
 n344                         694.726           0.007 1                          ;
 n345                         696.007           0.009 1                          ;
 n346                         703.423               0 1                          ;
 n347                         703.592               0 1                          ;
 n348                         701.728               0 1                          ;
 n349                         702.523               0 1                          ;
 n350                             698               0 1                          ;
 n351                         702.979               0 1                          ;
 n352                         700.993           0.073 1                          ;
 n353                         701.254           0.053 1                          ;
 n354                         700.973           0.071 1                          ;
 n355                         700.438            0.04 1                          ;
 n356                         702.539               0 1                          ;
 n357                          699.09           0.038 1                          ;
 n358                         701.982           0.044 1                          ;
 n359                         697.478           0.075 1                          ;
 n36                          712.894           0.038 1                          ;
 n360                         700.492               0 1                          ;
 n361                         703.426           0.039 1                          ;
 n362                         701.982           0.029 1                          ;
 n363                         704.982           0.063 1                          ;
 n364                         705.828           0.101 1                          ;
 n365                         705.803           0.051 1                          ;
 n366                         705.813           0.047 1                          ;
 n367                         705.465               0 1                          ;
 n368                         710.158               0 1                          ;
 n369                          724.88               0 1                          ;
 n37                          723.331               0 1                          ;
 n38                          723.909               0 1                          ;
 n39                            712.4               0 1                          ;
 n4                           698.708            0.02 1                          ;
 n40                          724.086               0 1                          ;
 n41                          707.979               0 1                          ;
 n42                          707.646           0.095 1                          ;
 n43                          723.985               0 1                          ;
 n44                          724.106               0 1                          ;
 n45                          723.991               0 1                          ;
 n46                          723.888               0 1                          ;
 n47                          716.092               0 1                          ;
 n48                          716.153               0 1                          ;
 n49                          697.494               0 1                          ;
 n5                            700.23               0 1                          ;
 n50                          696.981               0 1                          ;
 n51                            712.6           0.004 1                          ;
 n52                          712.807               0 1                          ;
 n53                          718.609           0.007 1                          ;
 n54                          717.119            0.03 1                          ;
 n55                          715.033           0.025 1                          ;
 n56                          718.466               0 1                          ;
 n57                          718.061               0 1                          ;
 n58                          708.697               0 1                          ;
 n59                          708.823               0 1                          ;
 n6                           680.208           0.013 1                          ;
 n60                          704.839               0 1                          ;
 n61                          704.849               0 1                          ;
 n62                          711.539           0.084 1                          ;
 n63                          711.679               0 1                          ;
 n64                          711.692               0 1                          ;
 n65                          711.525               0 1                          ;
 n66                          710.046               0 1                          ;
 n67                          710.106               0 1                          ;
 n68                          710.014               0 1                          ;
 n69                          710.025               0 1                          ;
 n7                           680.208               0 1                          ;
 n70                          703.756               0 1                          ;
 n71                          703.987           0.074 1                          ;
 n72                          703.607           0.027 1                          ;
 n73                          703.566               0 1                          ;
 n74                          705.004               0 1                          ;
 n75                          705.004           0.005 1                          ;
 n76                          705.008           0.025 1                          ;
 n77                          705.008               0 1                          ;
 n78                              695               0 1                          ;
 n79                              695               0 1                          ;
 n8                           719.062           0.003 1                          ;
 n80                          693.994           0.006 1                          ;
 n81                          720.212           0.006 1                          ;
 n82                          720.183           0.011 1                          ;
 n83                          720.124               0 1                          ;
 n84                          720.333           0.005 1                          ;
 n85                          720.284               0 1                          ;
 n86                           720.54           0.008 1                          ;
 n87                          720.457           0.007 1                          ;
 n88                          702.903               0 1                          ;
 n89                          703.056               0 1                          ;
 n9                           716.488           0.011 1                          ;
 n90                          689.333           0.201 1                          ;
 n91                          689.318           0.292 1                          ;
 n92                          707.622           0.009 1                          ;
 n93                          716.313               0 1                          ;
 n94                          716.372               0 1                          ;
 n95                           713.17               0 1                          ;
 n96                          712.973           0.002 1                          ;
 n97                          718.174               0 1                          ;
 n98                          709.938           0.025 1                          ;
 n99                          700.753           0.111 1                          ;

[RESERVOIRS]
;ID                                   Head                  Pattern
 3                                650                            ;

[TANKS]
;ID                              Elevation           Init Level            Min Level            Max Level             Diameter           Min Volume Volume Curve         Overflow            
 2                                724               8               5              10               8               0                                             ;

[PIPES]
;ID                   Node1                Node2                              Length             Diameter            Roughness           Minor Loss               Status
 p1                   n1                   n2                             68.36             100            0.03               0                 Open   ;
 p10                  n15                  n16                            5.062              60          0.0015               0                 Open   ;
 p100                 n142                 n56                             7.85              60          0.0015               0                 Open   ;
 p101                 n142                 n143                             200              60          0.0015               0                 Open   ;
 p102                 n144                 n145                           9.887              60          0.0015               0                 Open   ;
 p103                 n56                  n146                           34.75              60          0.0015               0                 Open   ;
 p104                 n147                 n57                            8.284              60          0.0015               0                 Open   ;
 p105                 n148                 n149                           183.4              60          0.0015               0                 Open   ;
 p106                 n149                 n147                           3.164              60          0.0015               0                 Open   ;
 p107                 n15                  n150                           56.48              60          0.0015               0                 Open   ;
 p108                 n151                 n16                            118.9              60          0.0015               0                 Open   ;
 p109                 n153                 n154                           7.854              60          0.0015               0                 Open   ;
 p11                  n17                  n18                            5.063             150            0.03               0                 Open   ;
 p110                 n25                  n154                           50.96              60          0.0015               0                 Open   ;
 p111                 n23                  n150                           205.4              60          0.0015               0                 Open   ;
 p112                 n53                  n156                           126.3              60          0.0015               0                 Open   ;
 p113                 n8                   n13                            154.5              60          0.0015               0                 Open   ;
 p114                 n9                   n51                            122.4              60          0.0015               0                 Open   ;
 p115                 n157                 n158                           4.783              60          0.0015               0                 Open   ;
 p116                 n159                 n160                           3.872              60          0.0015               0                 Open   ;
 p117                 n161                 n162                           4.006              60          0.0015               0                 Open   ;
 p118                 n163                 n161                           3.958              60          0.0015               0                 Open   ;
 p119                 n164                 n133                           17.64              60          0.0015               0                 Open   ;
 p12                  n19                  n20                            5.062              60          0.0015               0                 Open   ;
 p120                 n132                 n165                           5.858              60          0.0015               0                 Open   ;
 p121                 n166                 n167                           4.723              60          0.0015               0                 Open   ;
 p122                 n168                 n169                             8.4              60          0.0015               0                 Open   ;
 p123                 n144                 n86                            7.907              60          0.0015               0                 Open   ;
 p124                 n170                 n145                           22.26              60          0.0015               0                 Open   ;
 p125                 n84                  n146                           7.177              60          0.0015               0                 Open   ;
 p126                 n81                  n171                           7.347              60          0.0015               0                 Open   ;
 p127                 n172                 n173                           7.711              60          0.0015               0                 Open   ;
 p128                 n88                  n174                           7.835              60          0.0015               0                 Open   ;
 p129                 n175                 n176                           6.733              60          0.0015               0                 Open   ;
 p13                  n21                  n16                            7.849             150            0.03               0                 Open   ;
 p130                 n177                 n178                           6.305              60          0.0015               0                 Open   ;
 p131                 n179                 n180                           6.527              60          0.0015               0                 Open   ;
 p132                 n181                 n182                           6.247              60          0.0015               0                 Open   ;
 p133                 n183                 n184                           7.267              60          0.0015               0                 Open   ;
 p134                 n185                 n186                           54.08              60          0.0015               0                 Open   ;
 p135                 n162                 n165                            43.8              60          0.0015               0                 Open   ;
 p136                 n124                 n128                           32.37              60          0.0015               0                 Open   ;
 p137                 n151                 n157                           42.14              60          0.0015               0                 Open   ;
 p138                 n187                 n188                           39.96              60          0.0015               0                 Open   ;
 p139                 n189                 n140                           103.7              60          0.0015               0                 Open   ;
 p14                  n16                  n17                            46.22             150            0.03               0                 Open   ;
 p140                 n140                 n188                           21.79              60          0.0015               0                 Open   ;
 p141                 n136                 n190                           35.18              60          0.0015               0                 Open   ;
 p142                 n191                 n121                            59.8              60          0.0015               0                 Open   ;
 p143                 n191                 n30                            53.05              60          0.0015               0                 Open   ;
 p144                 n163                 n127                           33.54              60          0.0015               0                 Open   ;
 p145                 n161                 n160                            81.1              60          0.0015               0                 Open   ;
 p146                 n161                 n191                           217.7              60          0.0015               0                 Open   ;
 p147                 n132                 n29                            186.4              60          0.0015               0                 Open   ;
 p148                 n187                 n175                            18.5              60          0.0015               0                 Open   ;
 p149                 n178                 n175                           54.87              60          0.0015               0                 Open   ;
 p15                  n19                  n17                            54.06             150            0.03               0                 Open   ;
 p150                 n179                 n178                           54.76              60          0.0015               0                 Open   ;
 p151                 n182                 n179                           54.87              60          0.0015               0                 Open   ;
 p152                 n184                 n182                           54.68              60          0.0015               0                 Open   ;
 p153                 n164                 n184                           52.74              60          0.0015               0                 Open   ;
 p154                 n192                 n83                            87.23              60          0.0015               0                 Open   ;
 p155                 n193                 n192                            70.8              60          0.0015               0                 Open   ;
 p156                 n83                  n194                           61.84              60          0.0015               0                 Open   ;
 p157                 n15                  n18                            46.22              60          0.0015               0                 Open   ;
 p158                 n20                  n18                            54.07              60          0.0015               0                 Open   ;
 p159                 n20                  n186                           54.07              60          0.0015               0                 Open   ;
 p16                  n19                  n10                            43.63             150            0.03               0                 Open   ;
 p160                 n195                 n185                           54.08              60          0.0015               0                 Open   ;
 p161                 n174                 n195                           65.41              60          0.0015               0                 Open   ;
 p162                 n153                 n143                            7.85              60          0.0015               0                 Open   ;
 p163                 n143                 n196                           46.22              60          0.0015               0                 Open   ;
 p164                 n173                 n196                           44.54              60          0.0015               0                 Open   ;
 p165                 n196                 n171                             244              60          0.0015               0                 Open   ;
 p166                 n195                 n176                             176              60          0.0015               0                 Open   ;
 p167                 n185                 n177                           185.8              60          0.0015               0                 Open   ;
 p168                 n24                  n185                           53.12              60          0.0015               0                 Open   ;
 p169                 n198                 n26                            4.811              60          0.0015               0                 Open   ;
 p17                  n23                  n24                            4.378              60          0.0015               0                 Open   ;
 p170                 n145                 n198                           220.1              60          0.0015               0                 Open   ;
 p171                 n186                 n180                           194.8              60          0.0015               0                 Open   ;
 p172                 n27                  n168                           198.6              60          0.0015               0                 Open   ;
 p173                 n19                  n181                           199.2              60          0.0015               0                 Open   ;
 p174                 n55                  n166                             176              60          0.0015               0                 Open   ;
 p175                 n183                 n158                           95.16              60          0.0015               0                 Open   ;
 p176                 n158                 n17                            112.4              60          0.0015               0                 Open   ;
 p177                 n110                 n54                            141.8              60          0.0015               0                 Open   ;
 p178                 n200                 n45                            2.878             250            0.03               0                 Open   ;
 p179                 n201                 n46                            2.731             250            0.03               0                 Open   ;
 p18                  n25                  n26                             4.35              60          0.0015               0                 Open   ;
 p180                 n201                 n202                           334.6             250            0.03               0                 Open   ;
 p181                 n203                 n202                           17.44             250            0.03               0                 Open   ;
 p182                 n113                 n203                           112.5             250            0.03               0                 Open   ;
 p183                 n204                 n113                           209.6             250            0.03               0                 Open   ;
 p184                 n68                  n204                           216.8             250            0.03               0                 Open   ;
 p185                 n69                  n205                           7.019             250            0.03               0                 Open   ;
 p186                 n205                 n206                           216.3             250            0.03               0                 Open   ;
 p187                 n43                  n38                            3.898             150            0.03               0                 Open   ;
 p188                 n44                  n45                            3.421             150           0.045               0                 Open   ;
 p189                 n96                  n134                            6.57             150            0.03               0                 Open   ;
 p19                  n27                  n28                            79.53             150            0.03               0                 Open   ;
 p190                 n52                  n96                            6.594             150            0.03               0                 Open   ;
 p191                 n51                  n39                            6.457             150            0.03               0                 Open   ;
 p192                 n40                  n207                           29.11             150            0.03               0                 Open   ;
 p193                 n53                  n54                            46.21             150            0.03               0                 Open   ;
 p194                 n148                 n28                            25.45             150            0.03               0                 Open   ;
 p195                 n153                 n148                           3.164             150            0.03               0                 Open   ;
 p196                 n147                 n153                           183.4             150            0.03               0                 Open   ;
 p197                 n134                 n159                           56.23             100            0.03               0                 Open   ;
 p198                 n159                 n129                           60.79             100            0.03               0                 Open   ;
 p199                 n208                 n129                           4.367             100            0.03               0                 Open   ;
 p2                   n2                   n3                             71.48             100            0.03               0                 Open   ;
 p20                  n29                  n30                            24.21              60          0.0015               0                 Open   ;
 p200                 n208                 n126                            62.7             100            0.03               0                 Open   ;
 p201                 n125                 n126                           114.5             100            0.03               0                 Open   ;
 p202                 n125                 n108                           8.868             100            0.03               0                 Open   ;
 p203                 n144                 n209                           54.47             100            0.03               0                 Open   ;
 p204                 n209                 n210                           7.245             100            0.03               0                 Open   ;
 p205                 n156                 n211                           15.99             100            0.03               0                 Open   ;
 p206                 n212                 n78                            2.832             100            0.03               0                 Open   ;
 p207                 n213                 n214                           84.26              60          0.0015               0                 Open   ;
 p208                 n215                 n216                             7.8             150            0.03               0                 Open   ;
 p209                 n206                 n217                           66.73             250            0.03               0                 Open   ;
 p21                  n31                  n32                            3.367             110          0.0015               0                 Open   ;
 p210                 n75                  n107                           10.85             150            0.03               0                 Open   ;
 p211                 n218                 n219                           180.1             100            0.03               0                 Open   ;
 p212                 n220                 n221                           59.57              32          0.0015               0                 Open   ;
 p213                 n222                 n223                           61.66              60          0.0015               0                 Open   ;
 p214                 n222                 n224                           128.3              60          0.0015               0                 Open   ;
 p215                 n225                 n102                           65.16              60          0.0015               0                 Open   ;
 p216                 n226                 n227                           70.59             150            0.03               0                 Open   ;
 p217                 n227                 n79                            322.6             150            0.03               0                 Open   ;
 p218                 n228                 n229                           63.95              60          0.0015               0                 Open   ;
 p219                 n230                 n231                           1.083             100            0.03               0                 Open   ;
 p22                  n33                  n1                             1.791             100            0.03               0                 Open   ;
 p220                 n232                 n231                             0.4              60          0.0015               0                 Open   ;
 p221                 n233                 n234                           52.07              60          0.0015               0                 Open   ;
 p222                 n235                 n236                            51.8              60          0.0015               0                 Open   ;
 p223                 n237                 n238                           52.14              60          0.0015               0                 Open   ;
 p224                 n239                 n240                           49.05              60          0.0015               0                 Open   ;
 p225                 n241                 n212                           52.23              60          0.0015               0                 Open   ;
 p226                 n242                 n241                           65.48              60          0.0015               0                 Open   ;
 p227                 n243                 n242                           111.8              60          0.0015               0                 Open   ;
 p228                 n6                   n232                           117.2              60          0.0015               0                 Open   ;
 p229                 n240                 n232                           351.1              60          0.0015               0                 Open   ;
 p23                  n34                  n21                            69.51             150            0.03               0                 Open   ;
 p230                 n244                 n233                           114.9              60          0.0015               0                 Open   ;
 p231                 n244                 n245                           52.01              60          0.0015               0                 Open   ;
 p232                 n245                 n246                           9.416              60          0.0015               0                 Open   ;
 p233                 n247                 n244                           52.01              60          0.0015               0                 Open   ;
 p234                 n248                 n247                           52.02             100            0.03               0                 Open   ;
 p235                 n249                 n248                           52.02             100            0.03               0                 Open   ;
 p236                 n250                 n249                           52.01             100            0.03               0                 Open   ;
 p237                 n232                 n250                           48.91             100            0.03               0                 Open   ;
 p238                 n251                 n252                           129.1              60          0.0015               0                 Open   ;
 p239                 n253                 n254                           52.01              60          0.0015               0                 Open   ;
 p24                  n21                  n36                            106.7             150            0.03               0                 Open   ;
 p240                 n254                 n255                           52.01              60          0.0015               0                 Open   ;
 p241                 n256                 n255                           43.98              60          0.0015               0                 Open   ;
 p242                 n237                 n250                           117.3              60          0.0015               0                 Open   ;
 p243                 n250                 n239                           347.3              60          0.0015               0                 Open   ;
 p244                 n212                 n91                            247.7             100            0.03               0                 Open   ;
 p245                 n249                 n91                            94.26             100            0.03               0                 Open   ;
 p246                 n238                 n249                             119              60          0.0015               0                 Open   ;
 p247                 n247                 n236                           117.2              60          0.0015               0                 Open   ;
 p248                 n235                 n248                           119.6              60          0.0015               0                 Open   ;
 p249                 n248                 n241                           337.1              60          0.0015               0                 Open   ;
 p25                  n37                  n38                            23.35             150            0.03               0                 Open   ;
 p250                 n242                 n251                           56.18              60          0.0015               0                 Open   ;
 p251                 n251                 n253                           80.24              60          0.0015               0                 Open   ;
 p252                 n253                 n247                           195.3              60          0.0015               0                 Open   ;
 p253                 n244                 n254                           195.3              60          0.0015               0                 Open   ;
 p254                 n234                 n245                           112.2              60          0.0015               0                 Open   ;
 p255                 n245                 n255                           195.6              60          0.0015               0                 Open   ;
 p256                 n257                 n258                           235.2             100            0.03               0                 Open   ;
 p257                 n259                 n260                           38.37              60          0.0015               0                 Open   ;
 p258                 n259                 n261                           82.95              60          0.0015               0                 Open   ;
 p259                 n262                 n257                           6.453              60          0.0015               0                 Open   ;
 p26                  n39                  n36                            13.99             150            0.03               0                 Open   ;
 p260                 n263                 n264                           7.542              60          0.0015               0                 Open   ;
 p261                 n265                 n266                           74.61              60          0.0015               0                 Open   ;
 p262                 n267                 n33                            86.81              60          0.0015               0                 Open   ;
 p263                 n268                 n269                           53.81              60          0.0015               0                 Open   ;
 p264                 n262                 n270                           65.01              60          0.0015               0                 Open   ;
 p265                 n268                 n265                            60.8              60          0.0015               0                 Open   ;
 p266                 n271                 n272                           69.39              60          0.0015               0                 Open   ;
 p267                 n270                 n229                            40.7              60          0.0015               0                 Open   ;
 p268                 n273                 n274                           130.2              60          0.0015               0                 Open   ;
 p269                 n274                 n262                           130.1              60          0.0015               0                 Open   ;
 p27                  n37                  n34                            126.3             150            0.03               0                 Open   ;
 p270                 n275                 n111                           127.4              60          0.0015               0                 Open   ;
 p271                 n111                 n60                             9.81              60          0.0015               0                 Open   ;
 p272                 n33                  n265                           63.52              60          0.0015               0                 Open   ;
 p273                 n276                 n277                           65.01              60          0.0015               0                 Open   ;
 p274                 n276                 n278                           30.71              60          0.0015               0                 Open   ;
 p275                 n279                 n277                           210.8              60          0.0015               0                 Open   ;
 p276                 n277                 n280                           130.1              60          0.0015               0                 Open   ;
 p277                 n281                 n282                           65.01              60          0.0015               0                 Open   ;
 p278                 n282                 n283                           260.2              60          0.0015               0                 Open   ;
 p279                 n283                 n262                           64.98              60          0.0015               0                 Open   ;
 p28                  n40                  n38                            7.816             150            0.03               0                 Open   ;
 p280                 n284                 n274                           65.01              60          0.0015               0                 Open   ;
 p281                 n268                 n276                            75.1              60          0.0015               0                 Open   ;
 p282                 n284                 n270                             130              60          0.0015               0                 Open   ;
 p283                 n270                 n285                           130.1              60          0.0015               0                 Open   ;
 p284                 n286                 n285                           52.98              60          0.0015               0                 Open   ;
 p285                 n286                 n271                           132.7              60          0.0015               0                 Open   ;
 p286                 n282                 n273                           65.02              60          0.0015               0                 Open   ;
 p287                 n287                 n288                             127              60          0.0015               0                 Open   ;
 p288                 n260                 n288                           31.96              60          0.0015               0                 Open   ;
 p289                 n280                 n289                           60.01              60          0.0015               0                 Open   ;
 p29                  n41                  n42                            23.99             110          0.0015               0                 Open   ;
 p290                 n289                 n281                           130.1              60          0.0015               0                 Open   ;
 p291                 n289                 n263                           130.1              60          0.0015               0                 Open   ;
 p292                 n283                 n263                           65.04              60          0.0015               0                 Open   ;
 p293                 n263                 n277                           60.01              60          0.0015               0                 Open   ;
 p294                 n260                 n290                           4.458              60          0.0015               0                 Open   ;
 p295                 n283                 n291                           6.992              60          0.0015               0                 Open   ;
 p296                 n292                 n293                           50.01              60          0.0015               0                 Open   ;
 p297                 n293                 n294                           60.55              60          0.0015               0                 Open   ;
 p298                 n295                 n296                           64.78              60          0.0015               0                 Open   ;
 p299                 n297                 n298                           9.004              60          0.0015               0                 Open   ;
 p3                   n3                   n4                             58.92             100            0.03               0                 Open   ;
 p30                  n43                  n44                            3.999             150            0.03               0                 Open   ;
 p300                 n299                 n300                           9.006              60          0.0015               0                 Open   ;
 p301                 n301                 n302                           52.72              60          0.0015               0                 Open   ;
 p302                 n303                 n222                           2.646              60          0.0015               0                 Open   ;
 p303                 n304                 n103                             162              60          0.0015               0                 Open   ;
 p304                 n305                 n306                           92.07              60          0.0015               0                 Open   ;
 p305                 n307                 n308                           103.7              60          0.0015               0                 Open   ;
 p306                 n309                 n310                           52.43              60          0.0015               0                 Open   ;
 p307                 n311                 n312                           95.01              60          0.0015               0                 Open   ;
 p308                 n313                 n314                             110              60          0.0015               0                 Open   ;
 p309                 n315                 n316                             120              60          0.0015               0                 Open   ;
 p31                  n45                  n46                            3.956             250            0.03               0                 Open   ;
 p310                 n317                 n297                           64.94              60          0.0015               0                 Open   ;
 p311                 n318                 n293                           190.1              60          0.0015               0                 Open   ;
 p312                 n319                 n320                           109.4              60          0.0015               0                 Open   ;
 p313                 n321                 n322                           62.16              60          0.0015               0                 Open   ;
 p314                 n294                 n323                           191.3              60          0.0015               0                 Open   ;
 p315                 n293                 n322                           85.03              60          0.0015               0                 Open   ;
 p316                 n324                 n295                           197.1              60          0.0015               0                 Open   ;
 p317                 n325                 n324                           6.017              60          0.0015               0                 Open   ;
 p318                 n300                 n297                           69.42              60          0.0015               0                 Open   ;
 p319                 n326                 n213                           88.87              60          0.0015               0                 Open   ;
 p32                  n47                  n48                            2.874              60          0.0015               0                 Open   ;
 p320                 n218                 n65                            124.7             100            0.03               0                 Open   ;
 p321                 n62                  n103                           65.06              60          0.0015               0                 Open   ;
 p322                 n327                 n225                           67.95              60          0.0015               0                 Open   ;
 p323                 n224                 n328                           0.467              60          0.0015               0                 Open   ;
 p324                 n327                 n329                           200.5              60          0.0015               0                 Open   ;
 p325                 n330                 n225                           180.7              60          0.0015               0                 Open   ;
 p326                 n331                 n332                           2.924              60          0.0015               0                 Open   ;
 p327                 n62                  n333                           143.5              60          0.0015               0                 Open   ;
 p328                 n41                  n223                           3.064              60          0.0015               0                 Open   ;
 p329                 n112                 n302                           124.4              60          0.0015               0                 Open   ;
 p33                  n49                  n50                            61.19             125          0.0015               0                 Open   ;
 p330                 n302                 n334                           167.9              60          0.0015               0                 Open   ;
 p331                 n310                 n334                           120.2              60          0.0015               0                 Open   ;
 p332                 n298                 n295                             125              60          0.0015               0                 Open   ;
 p333                 n299                 n296                           150.8              60          0.0015               0                 Open   ;
 p334                 n300                 n335                           33.52              60          0.0015               0                 Open   ;
 p335                 n336                 n220                           198.2              60          0.0015               0                 Open   ;
 p336                 n220                 n337                           90.13              60          0.0015               0                 Open   ;
 p337                 n337                 n321                           8.598              60          0.0015               0                 Open   ;
 p338                 n338                 n339                           123.5             125          0.0015               0                 Open   ;
 p339                 n340                 n338                           83.38             125          0.0015               0                 Open   ;
 p34                  n51                  n52                            6.199             150            0.03               0                 Open   ;
 p340                 n341                 n326                            3.06             125          0.0015               0                 Open   ;
 p341                 n342                 n319                               3             125          0.0015               0                 Open   ;
 p342                 n343                 n215                           4.693             150            0.03               0                 Open   ;
 p343                 n344                 n215                           1.001             150            0.03               0                 Open   ;
 p344                 n345                 n344                           89.21             125          0.0015               0                 Open   ;
 p345                 n346                 n339                           162.1             125          0.0015               0                 Open   ;
 p346                 n347                 n346                           5.445             125          0.0015               0                 Open   ;
 p347                 n348                 n349                           37.23             125          0.0015               0                 Open   ;
 p348                 n315                 n350                            3.06             125          0.0015               0                 Open   ;
 p349                 n49                  n314                            3.06             125          0.0015               0                 Open   ;
 p35                  n53                  n34                            7.852             150            0.03               0                 Open   ;
 p350                 n50                  n312                            3.06             125          0.0015               0                 Open   ;
 p351                 n309                 n338                               3             125          0.0015               0                 Open   ;
 p352                 n305                 n347                           3.011             125          0.0015               0                 Open   ;
 p353                 n350                 n340                           64.15             125          0.0015               0                 Open   ;
 p354                 n49                  n350                           61.19             125          0.0015               0                 Open   ;
 p355                 n50                  n341                            61.2             125          0.0015               0                 Open   ;
 p356                 n341                 n345                           12.09             125          0.0015               0                 Open   ;
 p357                 n349                 n351                           24.44             125          0.0015               0                 Open   ;
 p358                 n351                 n342                               3             125          0.0015               0                 Open   ;
 p359                 n307                 n342                           59.16             125          0.0015               0                 Open   ;
 p36                  n54                  n55                             54.1             150            0.03               0                 Open   ;
 p360                 n70                  n307                           1.627             125          0.0015               0                 Open   ;
 p361                 n73                  n70                            60.18             125          0.0015               0                 Open   ;
 p362                 n347                 n73                            3.106             125          0.0015               0                 Open   ;
 p363                 n301                 n347                           3.226             125          0.0015               0                 Open   ;
 p364                 n99                  n352                           31.74             100            0.03               0                 Open   ;
 p365                 n334                 n353                           51.43             150            0.03               0                 Open   ;
 p366                 n226                 n288                           2.404             150            0.03               0                 Open   ;
 p367                 n354                 n226                           2.121             150            0.03               0                 Open   ;
 p368                 n355                 n288                           50.39             150            0.03               0                 Open   ;
 p369                 n355                 n258                           6.676             100            0.03               0                 Open   ;
 p37                  n55                  n27                            54.04             150            0.03               0                 Open   ;
 p370                 n356                 n287                           3.001             150            0.03               0                 Open   ;
 p371                 n275                 n356                           3.001             150            0.03               0                 Open   ;
 p372                 n272                 n357                           3.001             100            0.03               0                 Open   ;
 p373                 n258                 n357                           65.04             100            0.03               0                 Open   ;
 p374                 n352                 n258                           66.67             100            0.03               0                 Open   ;
 p375                 n352                 n358                           65.85             100            0.03               0                 Open   ;
 p376                 n279                 n358                           60.79             100            0.03               0                 Open   ;
 p377                 n1                   n279                           73.57             100            0.03               0                 Open   ;
 p378                 n359                 n357                           111.7             100            0.03               0                 Open   ;
 p379                 n290                 n360                           4.988             150            0.03               0                 Open   ;
 p38                  n56                  n57                            8.299              60          0.0015               0                 Open   ;
 p380                 n360                 n334                           2.816             150            0.03               0                 Open   ;
 p381                 n361                 n346                           7.362             150            0.03               0                 Open   ;
 p382                 n290                 n354                           31.95             150            0.03               0                 Open   ;
 p383                 n361                 n356                           60.94             150            0.03               0                 Open   ;
 p384                 n358                 n362                            7.06             100            0.03               0                 Open   ;
 p385                 n353                 n339                           4.783             125          0.0015               0                 Open   ;
 p386                 n358                 n264                           212.9             100            0.03               0                 Open   ;
 p387                 n291                 n99                            192.3             100            0.03               0                 Open   ;
 p388                 n285                 n359                           10.35              60          0.0015               0                 Open   ;
 p389                 n362                 n356                           49.91             150            0.03               0                 Open   ;
 p39                  n58                  n59                            4.587             250            0.03               0                 Open   ;
 p390                 n294                 n317                           109.3             110          0.0015               0                 Open   ;
 p391                 n348                 n317                           5.184             110          0.0015               0                 Open   ;
 p392                 n363                 n42                              150             110          0.0015               0                 Open   ;
 p393                 n363                 n364                           61.68             110          0.0015               0                 Open   ;
 p394                 n364                 n71                            130.5             110          0.0015               0                 Open   ;
 p395                 n303                 n364                           174.4             110          0.0015               0                 Open   ;
 p396                 n72                  n365                           133.8             110          0.0015               0                 Open   ;
 p397                 n366                 n365                               3             110          0.0015               0                 Open   ;
 p398                 n61                  n33                            56.58             110          0.0015               0                 Open   ;
 p399                 n32                  n61                              2.1             110          0.0015               0                 Open   ;
 p4                   n4                   n5                             81.21             100            0.03               0                 Open   ;
 p40                  n60                  n61                            0.199              60          0.0015               0                 Open   ;
 p400                 n31                  n366                           63.31             110          0.0015               0                 Open   ;
 p401                 n331                 n366                           174.2             110          0.0015               0                 Open   ;
 p402                 n328                 n31                            176.7             110          0.0015               0                 Open   ;
 p403                 n172                 n190                           20.42              60          0.0015               0                 Open   ;
 p404                 n367                 n172                            19.4              60          0.0015               0                 Open   ;
 p405                 n67                  n368                           1.629             110          0.0015               0                 Open   ;
 p406                 n104                 n368                           12.12             110          0.0015               0                 Open   ;
 p407                 n106                 n105                           51.81             110          0.0015               0                 Open   ;
 p408                 n109                 n167                           63.82              60          0.0015               0                 Open   ;
 p409                 n167                 n169                           59.87              60          0.0015               0                 Open   ;
 p41                  n62                  n63                            2.811              60          0.0015               0                 Open   ;
 p410                 n169                 n170                           37.61              60          0.0015               0                 Open   ;
 p411                 n369                 n210                           230.7             100            0.03               0                 Open   ;
 p412                 n210                 n194                           171.5              60          0.0015               0                 Open   ;
 p413                 n117                 n118                           5.853              60          0.0015               0                 Open   ;
 p414                 n211                 n109                           33.34             100            0.03               0                 Open   ;
 p415                 n193                 n367                           81.82              60          0.0015               0                 Open   ;
 p416                 n189                 n88                            52.41              60          0.0015               0                 Open   ;
 p42                  n63                  n64                            0.329             110          0.0015               0                 Open   ;
 p43                  n65                  n63                            3.733             110          0.0015               0                 Open   ;
 p44                  n66                  n67                            2.157             110          0.0015               0                 Open   ;
 p45                  n68                  n69                            3.148             250            0.03               0                 Open   ;
 p46                  n70                  n71                            5.005             110          0.0015               0                 Open   ;
 p47                  n72                  n73                            1.509             110          0.0015               0                 Open   ;
 p48                  n74                  n75                            1.765             150            0.03               0                 Open   ;
 p49                  n76                  n77                            0.599             110          0.0015               0                 Open   ;
 p5                   n6                   n7                             2.731              60          0.0015               0                 Open   ;
 p50                  n78                  n79                            0.136             150            0.03               0                 Open   ;
 p51                  n79                  n80                             93.2              60          0.0015               0                 Open   ;
 p52                  n81                  n82                             30.3              60          0.0015               0                 Open   ;
 p53                  n82                  n83                             30.3              60          0.0015               0                 Open   ;
 p54                  n84                  n85                            27.67              60          0.0015               0                 Open   ;
 p55                  n85                  n81                            27.67              60          0.0015               0                 Open   ;
 p56                  n86                  n87                            23.03              60          0.0015               0                 Open   ;
 p57                  n87                  n84                            23.03              60          0.0015               0                 Open   ;
 p58                  n88                  n89                            9.395              60          0.0015               0                 Open   ;
 p59                  n90                  n91                            4.001             100            0.03               0                 Open   ;
 p6                   n8                   n9                             69.51              60          0.0015               0                 Open   ;
 p60                  n92                  n42                            2.933             110          0.0015               0                 Open   ;
 p61                  n93                  n94                            3.103             110          0.0015               0                 Open   ;
 p62                  n95                  n96                            5.826             110          0.0015               0                 Open   ;
 p63                  n97                  n57                            3.046             110          0.0015               0                 Open   ;
 p64                  n28                  n98                            3.105             110          0.0015               0                 Open   ;
 p65                  n99                  n100                           0.887             100            0.03               0                 Open   ;
 p66                  n101                 n91                             3.75             100            0.03               0                 Open   ;
 p67                  n102                 n103                           0.836              60          0.0015               0                 Open   ;
 p68                  n66                  n68                            5.379             110          0.0015               0                 Open   ;
 p69                  n104                 n105                           19.54             110          0.0015               0                 Open   ;
 p7                   n10                  n11                            9.202             150            0.03               0                 Open   ;
 p70                  n106                 n64                            162.2             110          0.0015               0                 Open   ;
 p71                  n40                  n12                            3.146             150            0.03               0                 Open   ;
 p72                  n107                 n32                            6.211             110          0.0015               0                 Open   ;
 p73                  n93                  n108                           12.61             100            0.03               0                 Open   ;
 p74                  n109                 n110                           5.869              60          0.0015               0                 Open   ;
 p75                  n77                  n75                            3.037             110          0.0015               0                 Open   ;
 p76                  n111                 n112                           12.78              60          0.0015               0                 Open   ;
 p77                  n113                 n59                            15.62             250            0.03               0                 Open   ;
 p78                  n114                 n47                            13.62              60          0.0015               0                 Open   ;
 p79                  n93                  n48                            5.737              60          0.0015               0                 Open   ;
 p80                  n115                 n116                           5.678              60          0.0015               0                 Open   ;
 p81                  n115                 n117                           260.3              60          0.0015               0                 Open   ;
 p82                  n118                 n119                           74.15              60          0.0015               0                 Open   ;
 p83                  n48                  n119                           4.995              60          0.0015               0                 Open   ;
 p84                  n120                 n121                           6.541              60          0.0015               0                 Open   ;
 p85                  n39                  n122                           4.357             150            0.03               0                 Open   ;
 p86                  n120                 n123                           9.763              60          0.0015               0                 Open   ;
 p87                  n124                 n125                           51.09              60          0.0015               0                 Open   ;
 p88                  n126                 n121                             224              60          0.0015               0                 Open   ;
 p89                  n126                 n127                           23.06              60          0.0015               0                 Open   ;
 p9                   n10                  n14                            3.102             110          0.0015               0                 Open   ;
 p90                  n128                 n129                              81              60          0.0015               0                 Open   ;
 p91                  n130                 n29                             3.57              60          0.0015               0                 Open   ;
 p92                  n131                 n132                           3.323              60          0.0015               0                 Open   ;
 p94                  n134                 n131                            99.5              60          0.0015               0                 Open   ;
 p95                  n135                 n136                           3.226              60          0.0015               0                 Open   ;
 p96                  n135                 n137                           0.345              60          0.0015               0                 Open   ;
 p97                  n138                 n139                           0.691              60          0.0015               0                 Open   ;
 p98                  n140                 n138                           4.059              60          0.0015               0                 Open   ;
 p99                  n141                 n130                           0.704              60          0.0015               0                 Open   ;
 4                    n200                 2                                  1             250            0.03               0                 Open   ;

[PUMPS]
;ID                   Node1                Node2                Properties          
 3                    3                    2                    POWER    25.0                   ;

[VALVES]
;ID                   Node1                Node2                            Diameter Type              Setting           Minor Loss
 1                    n217                 n74                               12 PRV               20               0   ;

[TAGS]
;type      name       tag       

[DEMANDS]
;ID        Demand     Pattern   

[STATUS]
;ID        Setting   

[PATTERNS]
;ID        Multipliers

1 0.200000 0.400000 0.600000 0.800000 1.000000 1.200000
1 1.400000 1.600000 1.300000 1.100000 1.000000 0.800000
1 1.100000 1.300000 1.400000 1.500000 1.700000 1.800000
1 1.800000 2.000000 1.400000 1.300000 1.100000 0.900000

[CURVES]
;ID         X-Value      Y-Value     

[CONTROLS]

[RULES]

[ENERGY]
GLOBAL EFFICIENCY      75.0000
GLOBAL PRICE           0.0000
DEMAND CHARGE          0.0000

[EMITTERS]
;ID        Flow coefficient

[QUALITY]

[SOURCES]
;Node      Type       Quality    Pattern   

[REACTIONS]
;Type           Pipe/Tank               Coefficient

 ORDER BULK 1
 ORDER TANK 1
 ORDER WALL 1
 GLOBAL BULK 0.0000    
 GLOBAL WALL 0.0000    
 LIMITING POTENTIAL 0.0000    
 ROUGHNESS CORRELATION 0.0000    

[MIXING]
;Tank ID             Model Fraction

[TIMES]
DURATION             24:00:00
HYDRAULIC TIMESTEP   01:00:00
QUALITY TIMESTEP     00:05:00
PATTERN TIMESTEP     01:00:00
PATTERN START        00:00:00
REPORT TIMESTEP      01:00:00
REPORT START         00:00:00
START CLOCKTIME      00:00:00 AM
RULE TIMESTEP        00:06:00
STATISTIC            NONE      

[REPORT]
SUMMARY    NO
PAGE       0

[OPTIONS]
UNITS                LPS                 
HEADLOSS             D-W                 
SPECIFIC GRAVITY     1
VISCOSITY            1
TRIALS               40
ACCURACY             0.001
CHECKFREQ            2
MAXCHECK             10
UNBALANCED           CONTINUE 10
PATTERN              1                   
DEMAND MULTIPLIER    1
DEMAND MODEL         PDA
MINIMUM PRESSURE     0.00
REQUIRED PRESSURE    10.00
PRESSURE EXPONENT    0.5
EMITTER EXPONENT     0.5
QUALITY              NONE                
DIFFUSIVITY          1
TOLERANCE            0.01

[COORDINATES]
;Node      X-Coord    Y-Coord   
n1             795736.133000000    7592722.723000000
n10            796405.828000000    7593190.219000000
n100           795539.466000000    7592717.946000000
n101           795087.310000000    7592809.818000000
n102           796107.163000000    7592600.702000000
n103           796107.072000000    7592599.871000000
n104           796068.359000000    7592726.894000000
n105           796087.669000000    7592729.825000000
n106           796120.645000000    7592697.272000000
n107           795754.873000000    7592666.896000000
n108           796267.466000000    7592746.455000000
n109           796637.145000000    7593133.840000000
n11            796404.012000000    7593199.234000000
n110           796631.743000000    7593136.127000000
n111           795738.397000000    7592665.550000000
n112           795740.728000000    7592652.990000000
n113           796208.495000000    7592978.701000000
n114           796248.655000000    7592759.882000000
n115           796201.744000000    7592402.515000000
n116           796196.103000000    7592403.115000000
n117           796229.235000000    7592661.335000000
n118           796230.332000000    7592667.078000000
n119           796250.203000000    7592738.512000000
n12            796658.423000000    7593083.177000000
n120           796028.391000000    7592824.853000000
n121           796026.321000000    7592831.052000000
n122           796317.264000000    7593024.963000000
n123           796036.527000000    7592819.467000000
n124           796316.026000000    7592764.823000000
n125           796265.887000000    7592755.180000000
n126           796247.105000000    7592868.140000000
n127           796243.739000000    7592890.948000000
n128           796312.238000000    7592796.967000000
n129           796313.341000000    7592877.943000000
n13            796655.479000000    7593082.584000000
n130           796031.015000000    7592942.565000000
n131           796217.115000000    7592978.494000000
n132           796214.175000000    7592976.948000000
n133           796216.431000000    7592983.219000000
n134           796315.198000000    7592994.911000000
n135           796385.279000000    7593386.978000000
n136           796383.145000000    7593389.390000000
n137           796384.945000000    7593386.894000000
n138           796221.780000000    7593330.319000000
n139           796221.111000000    7593330.151000000
n14            796402.785000000    7593189.621000000
n140           796221.172000000    7593334.328000000
n141           796030.341000000    7592942.362000000
n142           796644.410000000    7593367.117000000
n143           796448.621000000    7593327.715000000
n144           796686.104000000    7593312.473000000
n145           796676.427000000    7593310.473000000
n146           796679.983000000    7593366.204000000
n147           796629.700000000    7593356.179000000
n148           796450.794000000    7593316.925000000
n149           796630.324000000    7593353.079000000
n15            796438.817000000    7593050.160000000
n150           796494.149000000    7593061.304000000
n151           796317.328000000    7593025.696000000
n153           796450.169000000    7593320.025000000
n154           796442.479000000    7593318.476000000
n156           796625.699000000    7593087.795000000
n157           796316.497000000    7593067.802000000
n158           796315.004000000    7593072.342000000
n159           796314.404000000    7592938.707000000
n16            796433.858000000    7593049.162000000
n160           796310.534000000    7592938.722000000
n161           796230.499000000    7592925.902000000
n162           796229.709000000    7592929.827000000
n163           796231.095000000    7592921.991000000
n164           796216.116000000    7593000.837000000
n165           796215.753000000    7592971.309000000
n166           796654.759000000    7593195.063000000
n167           796659.269000000    7593193.682000000
n168           796666.068000000    7593253.271000000
n169           796674.298000000    7593251.621000000
n17            796425.101000000    7593094.513000000
n170           796680.820000000    7593288.657000000
n171           796678.351000000    7593421.017000000
n172           796426.970000000    7593423.355000000
n173           796430.716000000    7593416.625000000
n174           796374.444000000    7593371.445000000
n175           796208.245000000    7593272.465000000
n176           796214.968000000    7593272.660000000
n177           796216.057000000    7593217.763000000
n178           796209.760000000    7593217.651000000
n179           796211.337000000    7593162.958000000
n18            796430.060000000    7593095.512000000
n180           796217.856000000    7593163.009000000
n181           796219.258000000    7593108.176000000
n182           796213.016000000    7593108.147000000
n183           796221.767000000    7593053.565000000
n184           796214.505000000    7593053.528000000
n185           796398.060000000    7593254.414000000
n186           796408.726000000    7593201.447000000
n187           796207.775000000    7593290.952000000
n188           796199.824000000    7593330.068000000
n189           796322.861000000    7593354.498000000
n19            796414.434000000    7593147.481000000
n190           796409.738000000    7593412.410000000
n191           796015.853000000    7592889.904000000
n192           796592.650000000    7593464.741000000
n193           796522.676000000    7593454.949000000
n194           796738.715000000    7593493.438000000
n195           796387.395000000    7593307.383000000
n196           796439.503000000    7593372.993000000
n198           796460.836000000    7593267.057000000
n2             795725.312000000    7592790.201000000
n20            796419.393000000    7593148.479000000
n200           796648.873000000    7593073.511000000
n201           796646.983000000    7593082.883000000
n202           796319.202000000    7593016.835000000
n203           796318.960000000    7592999.403000000
n204           796002.153000000    7592942.276000000
n205           796046.434000000    7592721.612000000
n206           795833.952000000    7592681.075000000
n207           796686.316000000    7593092.034000000
n208           796308.976000000    7592877.957000000
n209           796739.484000000    7593323.156000000
n21            796435.407000000    7593041.473000000
n210           796746.706000000    7593322.639000000
n211           796623.161000000    7593103.581000000
n212           795093.496000000    7592562.201000000
n213           795092.789000000    7592550.441000000
n214           795009.275000000    7592539.318000000
n215           795021.155000000    7592514.687000000
n216           795016.398000000    7592508.505000000
n217           795768.276000000    7592669.294000000
n218           796088.415000000    7592408.186000000
n219           796267.970000000    7592396.552000000
n220           795887.554000000    7592363.859000000
n221           795879.863000000    7592422.911000000
n222           795947.099000000    7592569.964000000
n223           795958.366000000    7592509.345000000
n224           795923.659000000    7592696.062000000
n225           796114.256000000    7592665.471000000
n226           795482.941000000    7592615.351000000
n227           795413.546000000    7592602.470000000
n228           795299.408000000    7592912.617000000
n229           795363.337000000    7592913.541000000
n23            796453.751000000    7593262.496000000
n230           794977.485000000    7592899.688000000
n231           794978.566000000    7592899.739000000
n232           794978.966000000    7592899.758000000
n233           795231.056000000    7593024.755000000
n234           795283.109000000    7593024.483000000
n235           795127.218000000    7593025.297000000
n236           795179.003000000    7593025.027000000
n237           795023.003000000    7593018.879000000
n238           795075.003000000    7593022.642000000
n239           795041.750000000    7592554.834000000
n24            796450.095000000    7593264.893000000
n240           794993.042000000    7592549.070000000
n241           795145.260000000    7592569.121000000
n242           795210.159000000    7592577.798000000
n243           795320.917000000    7592592.598000000
n244           795235.660000000    7592910.061000000
n245           795287.606000000    7592912.446000000
n246           795297.016000000    7592912.582000000
n247           795183.701000000    7592907.976000000
n248           795131.743000000    7592905.890000000
n249           795079.785000000    7592903.805000000
n25            796452.533000000    7593268.551000000
n250           795027.827000000    7592901.719000000
n251           795202.575000000    7592633.457000000
n252           795330.549000000    7592650.565000000
n253           795191.531000000    7592712.919000000
n254           795243.489000000    7592715.005000000
n255           795295.447000000    7592717.090000000
n256           795339.380000000    7592718.853000000
n257           795469.161000000    7592909.125000000
n258           795473.766000000    7592673.993000000
n259           795413.378000000    7592604.899000000
n26            796456.124000000    7593266.107000000
n260           795451.124000000    7592611.766000000
n261           795331.215000000    7592593.595000000
n262           795469.013000000    7592915.573000000
n263           795598.978000000    7592918.564000000
n264           795599.152000000    7592911.026000000
n265           795727.071000000    7592785.626000000
n266           795800.418000000    7592799.241000000
n267           795823.236000000    7592738.892000000
n268           795725.673000000    7592846.391000000
n269           795778.569000000    7592856.210000000
n27            796471.503000000    7593214.089000000
n270           795404.029000000    7592914.129000000
n271           795338.279000000    7592651.181000000
n272           795406.863000000    7592661.699000000
n273           795463.030000000    7593175.504000000
n274           795466.021000000    7593045.539000000
n275           795613.201000000    7592642.132000000
n276           795723.945000000    7592921.441000000
n277           795658.962000000    7592919.945000000
n278           795754.637000000    7592922.147000000
n279           795663.811000000    7592709.299000000
n28            796455.759000000    7593291.980000000
n280           795655.971000000    7593049.911000000
n281           795592.995000000    7593178.496000000
n282           795528.013000000    7593177.000000000
n283           795533.967000000    7592917.068000000
n284           795401.038000000    7593044.043000000
n285           795407.021000000    7592784.112000000
n286           795354.062000000    7592782.893000000
n287           795607.307000000    7592641.009000000
n288           795482.518000000    7592617.718000000
n289           795595.987000000    7593048.530000000
n29            796030.421000000    7592946.084000000
n290           795451.911000000    7592607.379000000
n291           795534.154000000    7592910.080000000
n292           795807.039000000    7592316.717000000
n293           795759.548000000    7592301.077000000
n294           795702.052000000    7592282.143000000
n295           795641.600000000    7592262.235000000
n296           795580.074000000    7592241.974000000
n297           795602.896000000    7592389.839000000
n298           795602.340000000    7592380.856000000
n299           795533.057000000    7592385.145000000
n3             795723.290000000    7592861.633000000
n30            796006.556000000    7592942.090000000
n300           795533.613000000    7592394.128000000
n301           795627.795000000    7592578.672000000
n302           795618.354000000    7592630.536000000
n303           795944.498000000    7592569.478000000
n304           795947.888000000    7592570.112000000
n305           795631.281000000    7592576.273000000
n306           795721.765000000    7592593.245000000
n307           795639.998000000    7592511.634000000
n308           795741.864000000    7592531.233000000
n309           795341.187000000    7592529.137000000
n31            795749.832000000    7592662.201000000
n310           795334.523000000    7592581.134000000
n311           795153.048000000    7592552.602000000
n312           795165.702000000    7592458.449000000
n313           795212.116000000    7592563.548000000
n314           795226.768000000    7592454.528000000
n315           795287.834000000    7592450.607000000
n316           795271.849000000    7592569.538000000
n317           795667.711000000    7592385.826000000
n318           795820.219000000    7592121.306000000
n319           795653.540000000    7592453.990000000
n32            795748.841000000    7592665.419000000
n320           795760.978000000    7592474.271000000
n321           795794.929000000    7592377.951000000
n322           795732.898000000    7592381.791000000
n323           795761.685000000    7592100.691000000
n324           795702.852000000    7592075.315000000
n325           795697.137000000    7592073.433000000
n326           795104.633000000    7592462.370000000
n327           796121.817000000    7592733.000000000
n328           795923.201000000    7592695.975000000
n329           795924.805000000    7592696.276000000
n33            795737.894000000    7592723.050000000
n330           795936.612000000    7592632.541000000
n331           795932.640000000    7592631.805000000
n332           795935.514000000    7592632.338000000
n333           795959.273000000    7592509.509000000
n334           795453.290000000    7592599.699000000
n335           795500.155000000    7592396.199000000
n336           796085.258000000    7592350.813000000
n337           795797.623000000    7592369.793000000
n338           795341.568000000    7592526.162000000
n339           795463.707000000    7592544.460000000
n34            796503.503000000    7593055.186000000
n340           795352.252000000    7592443.465000000
n341           795105.041000000    7592459.337000000
n342           795650.593000000    7592453.433000000
n343           795017.605000000    7592517.751000000
n344           795021.951000000    7592514.082000000
n345           795092.971000000    7592460.112000000
n346           795623.025000000    7592574.485000000
n347           795628.373000000    7592575.498000000
n348           795666.220000000    7592390.789000000
n349           795655.506000000    7592426.440000000
n350           795288.241000000    7592447.575000000
n351           795651.130000000    7592450.482000000
n352           795539.310000000    7592686.188000000
n353           795462.862000000    7592549.168000000
n354           795483.314000000    7592613.263000000
n355           795473.645000000    7592667.319000000
n356           795610.252000000    7592641.579000000
n357           795409.828000000    7592662.154000000
n358           795604.050000000    7592698.206000000
n359           795407.259000000    7592773.770000000
n36            796330.861000000    7593020.419000000
n360           795452.792000000    7592602.470000000
n361           795621.648000000    7592581.718000000
n362           795604.927000000    7592691.200000000
n363           795784.270000000    7592477.078000000
n364           795772.990000000    7592537.713000000
n365           795761.957000000    7592597.019000000
n366           795761.409000000    7592599.969000000
n367           796444.045000000    7593432.552000000
n368           796058.233000000    7592731.927000000
n369           796689.871000000    7593100.186000000
n37            796627.247000000    7593080.106000000
n38            796650.129000000    7593084.732000000
n39            796316.882000000    7593020.624000000
n4             795721.916000000    7592920.507000000
n40            796657.793000000    7593086.257000000
n41            795955.354000000    7592508.786000000
n42            795931.769000000    7592504.415000000
n43            796650.875000000    7593080.907000000
n44            796651.667000000    7593076.989000000
n45            796648.312000000    7593076.332000000
n46            796647.521000000    7593080.207000000
n47            796248.894000000    7592746.269000000
n48            796249.377000000    7592743.437000000
n49            795227.175000000    7592451.496000000
n5             795803.093000000    7592922.476000000
n50            795166.110000000    7592455.416000000
n51            796316.088000000    7593014.219000000
n52            796315.327000000    7593008.070000000
n53            796501.954000000    7593062.876000000
n54            796492.836000000    7593108.154000000
n55            796482.164000000    7593161.148000000
n56            796645.942000000    7593359.424000000
n57            796637.813000000    7593357.804000000
n58            796204.555000000    7592998.508000000
n59            796205.428000000    7592994.008000000
n6             794974.271000000    7593016.737000000
n60            795748.024000000    7592667.387000000
n61            795748.220000000    7592667.424000000
n62            796100.366000000    7592535.169000000
n63            796103.126000000    7592535.684000000
n64            796103.150000000    7592536.012000000
n65            796102.723000000    7592531.977000000
n66            796054.567000000    7592731.810000000
n67            796056.679000000    7592732.247000000
n68            796049.300000000    7592730.715000000
n69            796050.014000000    7592727.649000000
n7             794974.161000000    7593019.465000000
n70            795639.707000000    7592513.234000000
n71            795644.625000000    7592514.137000000
n72            795630.412000000    7592572.716000000
n73            795628.929000000    7592572.443000000
n74            795767.291000000    7592669.118000000
n75            795765.551000000    7592668.827000000
n76            795764.859000000    7592672.396000000
n77            795764.975000000    7592671.808000000
n78            795093.876000000    7592559.394000000
n79            795093.894000000    7592559.259000000
n8             796504.126000000    7593052.092000000
n80            795001.535000000    7592546.774000000
n81            796685.682000000    7593421.429000000
n82            796682.749000000    7593451.589000000
n83            796678.067000000    7593481.528000000
n84            796687.155000000    7593366.121000000
n85            796687.045000000    7593393.792000000
n86            796684.298000000    7593320.170000000
n87            796686.296000000    7593343.110000000
n88            796369.510000000    7593377.514000000
n89            796376.576000000    7593383.704000000
n9             796436.031000000    7593038.373000000
n90            795087.561000000    7592809.830000000
n91            795083.563000000    7592809.667000000
n92            795932.303000000    7592501.531000000
n93            796255.033000000    7592744.380000000
n94            796255.543000000    7592741.321000000
n95            796320.917000000    7593002.611000000
n96            796315.206000000    7593001.480000000
n97            796638.407000000    7593354.819000000
n98            796458.801000000    7593292.578000000
n99            795538.579000000    7592717.920000000
3              796647.700000000    7593066.891000000
2              796651.766000000    7593071.695000000

[VERTICES]
;Link      X-Coord    Y-Coord   
p403           796422.587000000    7593420.738000000
p403           796418.253000000    7593418.041000000
p403           796413.970000000    7593415.264000000
p404           796439.717000000    7593430.365000000
p404           796435.427000000    7593428.103000000
p404           796431.178000000    7593425.766000000
p405           796057.084000000    7592732.289000000
p405           796057.489000000    7592732.248000000
p405           796057.877000000    7592732.125000000
p406           796066.062000000    7592726.681000000
p406           796063.793000000    7592727.094000000
p406           796061.718000000    7592728.101000000
p406           796059.991000000    7592729.630000000
p407           796120.138000000    7592703.729000000
p407           796118.334000000    7592709.949000000
p407           796115.309000000    7592715.675000000
p407           796111.187000000    7592720.670000000
p407           796106.139000000    7592724.727000000
p407           796100.374000000    7592727.678000000
p407           796094.131000000    7592729.401000000
p408           796648.472000000    7593162.101000000
p409           796667.120000000    7593221.050000000
p410           796677.843000000    7593270.089000000
p411           796698.289000000    7593119.489000000
p411           796709.035000000    7593147.447000000
p411           796718.531000000    7593175.853000000
p411           796726.759000000    7593204.653000000
p411           796733.703000000    7593233.789000000
p411           796739.349000000    7593263.204000000
p411           796743.686000000    7593292.840000000
p412           796748.451000000    7593351.161000000
p412           796748.964000000    7593379.731000000
p412           796748.245000000    7593408.297000000
p412           796746.294000000    7593436.806000000
p412           796743.116000000    7593465.203000000
p413           796229.419000000    7592662.786000000
p413           796229.663000000    7592664.229000000
p413           796229.968000000    7592665.660000000
p414           796626.811000000    7593111.074000000
p414           796630.358000000    7593118.616000000
p414           796633.803000000    7593126.205000000
p415           796502.729000000    7593450.411000000
p415           796482.958000000    7593445.162000000
p415           796463.389000000    7593439.206000000
p416           796339.501000000    7593359.815000000
p416           796355.166000000    7593367.544000000

[LABELS]

[BACKDROP]
DIMENSIONS    794885.534    7592002.433    796835.333    7593564.438
UNITS    NONE
OFFSET    0.00    0.00

[END]
