[TITLE]
Rede do Setor Monte Carlo
Araraquara - SP

[PATTERNS]
;ID                             	Multipliers
FIR01-73                       	0.373     	1.0       	1.704     	

[JUNCTIONS]
;ID                            	Elev 	Demand    	Pattern                        
JMC-100                        	710.73	0         	FIR01-73                       ;
JMC-101                        	717.966	0         	FIR01-73                       ;
JMC-102                        	711.811	0         	FIR01-73                       ;
JMC-103                        	714  	0         	FIR01-73                       ;
JMC-104                        	717.327	0         	FIR01-73                       ;
JMC-108                        	698.751	0.072     	FIR01-73                       ;
JMC-109                        	724.524	0         	FIR01-73                       ;
JMC-110                        	724.783	0         	FIR01-73                       ;
JMC-111                        	724.728	0         	FIR01-73                       ;
JMC-112                        	717.141	0.135     	FIR01-73                       ;
JMC-113                        	713.977	0.099     	FIR01-73                       ;
JMC-114                        	713.527	0.072     	FIR01-73                       ;
JMC-115                        	720.62	0         	FIR01-73                       ;
JMC-116                        	722.876	0         	FIR01-73                       ;
JMC-117                        	723.677	0.081     	FIR01-73                       ;
JMC-118                        	719.466	0.045     	FIR01-73                       ;
JMC-119                        	717.958	0.108     	FIR01-73                       ;
JMC-120                        	716.103	0.099     	FIR01-73                       ;
JMC-121                        	714.113	0.171     	FIR01-73                       ;
JMC-122                        	710.837	0.09      	FIR01-73                       ;
JMC-123                        	717.819	0.063     	FIR01-73                       ;
JMC-124                        	722.394	0.144     	FIR01-73                       ;
JMC-125                        	723.915	0         	FIR01-73                       ;
JMC-126                        	704.846	0.117     	FIR01-73                       ;
JMC-127                        	702.3	0.036     	FIR01-73                       ;
JMC-128                        	704.695	0.09      	FIR01-73                       ;
JMC-129                        	705.991	0.216     	FIR01-73                       ;
JMC-13                         	710.851	0.072     	FIR01-73                       ;
JMC-130                        	698.956	0.054     	FIR01-73                       ;
JMC-131                        	700.185	0.252     	FIR01-73                       ;
JMC-132                        	705.698	0.117     	FIR01-73                       ;
JMC-133                        	702.767	0.018     	FIR01-73                       ;
JMC-134                        	700.83	0.018     	FIR01-73                       ;
JMC-135                        	688.065	0.162     	FIR01-73                       ;
JMC-136                        	696.289	0.099     	FIR01-73                       ;
JMC-137                        	697.074	0.126     	FIR01-73                       ;
JMC-138                        	698.052	0.171     	FIR01-73                       ;
JMC-139                        	705.658	0.072     	FIR01-73                       ;
JMC-14                         	703.72	0.297     	FIR01-73                       ;
JMC-140                        	700.531	0         	FIR01-73                       ;
JMC-141                        	686.411	0.225     	FIR01-73                       ;
JMC-142                        	702.546	0.072     	FIR01-73                       ;
JMC-143                        	706.324	0.207     	FIR01-73                       ;
JMC-144                        	697.711	0         	FIR01-73                       ;
JMC-145                        	698.704	0.116     	FIR01-73                       ;
JMC-146                        	698.718	0.081     	FIR01-73                       ;
JMC-147                        	705  	0.041     	FIR01-73                       ;
JMC-148                        	694.379	0.036     	FIR01-73                       ;
JMC-149                        	709.621	1.134     	FIR01-73                       ;
JMC-15                         	701.592	0.227     	FIR01-73                       ;
JMC-150                        	709.117	0         	FIR01-73                       ;
JMC-151                        	717  	0         	FIR01-73                       ;
JMC-152                        	724.822	0.054     	FIR01-73                       ;
JMC-153                        	693.101	0         	FIR01-73                       ;
JMC-155                        	702.763	0.252     	FIR01-73                       ;
JMC-156                        	701.345	0.108     	FIR01-73                       ;
JMC-157                        	700.927	0.288     	FIR01-73                       ;
JMC-159                        	693.987	0.234     	FIR01-73                       ;
JMC-16                         	697.982	0.126     	FIR01-73                       ;
JMC-160                        	697.181	0.108     	FIR01-73                       ;
JMC-161                        	698.295	0.297     	FIR01-73                       ;
JMC-162                        	704.836	0.135     	FIR01-73                       ;
JMC-163                        	703.2	0         	FIR01-73                       ;
JMC-164                        	696.179	0.243     	FIR01-73                       ;
JMC-165                        	695.085	0.14      	FIR01-73                       ;
JMC-166                        	701.353	0.18      	FIR01-73                       ;
JMC-167                        	703.973	0         	FIR01-73                       ;
JMC-168                        	699.51	0.234     	FIR01-73                       ;
JMC-17                         	699.9	0.144     	FIR01-73                       ;
JMC-170                        	686  	0.378     	FIR01-73                       ;
JMC-171                        	686.949	0.108     	FIR01-73                       ;
JMC-172                        	688.278	0.378     	FIR01-73                       ;
JMC-173                        	689.748	0.225     	FIR01-73                       ;
JMC-174                        	690.932	0.297     	FIR01-73                       ;
JMC-175                        	692  	0.216     	FIR01-73                       ;
JMC-176                        	709  	0         	FIR01-73                       ;
JMC-177                        	709  	0         	FIR01-73                       ;
JMC-178                        	712.208	0.045     	FIR01-73                       ;
JMC-179                        	717.399	0.099     	FIR01-73                       ;
JMC-18                         	690.142	0.216     	FIR01-73                       ;
JMC-180                        	709.811	0.225     	FIR01-73                       ;
JMC-181                        	712.551	0.225     	FIR01-73                       ;
JMC-182                        	714.632	0.108     	FIR01-73                       ;
JMC-183                        	701.468	0         	FIR01-73                       ;
JMC-184                        	698.917	0.081     	FIR01-73                       ;
JMC-185                        	696.956	0.045     	FIR01-73                       ;
JMC-186                        	705.362	0.036     	FIR01-73                       ;
JMC-187                        	689.204	0.099     	FIR01-73                       ;
JMC-188                        	693.737	0.076     	FIR01-73                       ;
JMC-189                        	686.875	0.081     	FIR01-73                       ;
JMC-19                         	685.468	0.252     	FIR01-73                       ;
JMC-190                        	701  	0.054     	FIR01-73                       ;
JMC-191                        	700.356	0.108     	FIR01-73                       ;
JMC-192                        	706.107	0.081     	FIR01-73                       ;
JMC-193                        	699.187	0.09      	FIR01-73                       ;
JMC-194                        	699.288	0.018     	FIR01-73                       ;
JMC-195                        	695.543	0.108     	FIR01-73                       ;
JMC-196                        	696.168	0         	FIR01-73                       ;
JMC-197                        	684.446	0         	FIR01-73                       ;
JMC-198                        	684.708	0.162     	FIR01-73                       ;
JMC-199                        	696.165	0.171     	FIR01-73                       ;
JMC-2                          	695  	0         	FIR01-73                       ;
JMC-20                         	692.735	0.189     	FIR01-73                       ;
JMC-200                        	702.062	0.072     	FIR01-73                       ;
JMC-201                        	713.12	0.252     	FIR01-73                       ;
JMC-202                        	712.059	0.009     	FIR01-73                       ;
JMC-203                        	682.263	0.036     	FIR01-73                       ;
JMC-204                        	683.48	0.036     	FIR01-73                       ;
JMC-205                        	684.568	0.108     	FIR01-73                       ;
JMC-206                        	685.52	0.162     	FIR01-73                       ;
JMC-207                        	686.636	0.135     	FIR01-73                       ;
JMC-208                        	687.923	0.126     	FIR01-73                       ;
JMC-209                        	694.721	0.252     	FIR01-73                       ;
JMC-210                        	694  	0.108     	FIR01-73                       ;
JMC-211                        	705.349	0.135     	FIR01-73                       ;
JMC-212                        	708  	0.198     	FIR01-73                       ;
JMC-213                        	725.626	0.09      	FIR01-73                       ;
JMC-214                        	713.813	0         	FIR01-73                       ;
JMC-215                        	712.655	0         	FIR01-73                       ;
JMC-216                        	712.423	0         	FIR01-73                       ;
JMC-217                        	708.245	0.126     	FIR01-73                       ;
JMC-218                        	706.334	0.162     	FIR01-73                       ;
JMC-219                        	704.418	0.135     	FIR01-73                       ;
JMC-22                         	701.677	0.153     	FIR01-73                       ;
JMC-220                        	702.354	0.144     	FIR01-73                       ;
JMC-221                        	700.617	0.144     	FIR01-73                       ;
JMC-222                        	697.597	0         	FIR01-73                       ;
JMC-223                        	699.664	0         	FIR01-73                       ;
JMC-224                        	703.691	0         	FIR01-73                       ;
JMC-225                        	707.103	0         	FIR01-73                       ;
JMC-226                        	708.242	0.108     	FIR01-73                       ;
JMC-227                        	714.581	0         	FIR01-73                       ;
JMC-228                        	719.285	0.054     	FIR01-73                       ;
JMC-229                        	718.333	0.216     	FIR01-73                       ;
JMC-23                         	703.268	0.126     	FIR01-73                       ;
JMC-230                        	719.559	0         	FIR01-73                       ;
JMC-231                        	720.435	0.054     	FIR01-73                       ;
JMC-232                        	720.956	0         	FIR01-73                       ;
JMC-233                        	721.163	0.171     	FIR01-73                       ;
JMC-234                        	722  	0.162     	FIR01-73                       ;
JMC-235                        	722.596	0.117     	FIR01-73                       ;
JMC-236                        	723.213	0         	FIR01-73                       ;
JMC-237                        	710.456	0         	FIR01-73                       ;
JMC-238                        	705.843	0.045     	FIR01-73                       ;
JMC-239                        	707.874	0.045     	FIR01-73                       ;
JMC-24                         	699.842	0.054     	FIR01-73                       ;
JMC-240                        	718.017	0.108     	FIR01-73                       ;
JMC-241                        	717.796	0.09      	FIR01-73                       ;
JMC-242                        	713.985	0         	FIR01-73                       ;
JMC-243                        	713.872	0         	FIR01-73                       ;
JMC-244                        	708.962	0         	FIR01-73                       ;
JMC-245                        	711.836	0         	FIR01-73                       ;
JMC-246                        	710.349	0         	FIR01-73                       ;
JMC-248                        	705  	0         	FIR01-73                       ;
JMC-25                         	705.074	0.081     	FIR01-73                       ;
JMC-251                        	718.036	0         	FIR01-73                       ;
JMC-252                        	717.257	0         	FIR01-73                       ;
JMC-253                        	717.043	0         	FIR01-73                       ;
JMC-256                        	706.103	0         	FIR01-73                       ;
JMC-257                        	722.053	0         	FIR01-73                       ;
JMC-259                        	724.833	0         	FIR01-73                       ;
JMC-26                         	705.306	0.198     	FIR01-73                       ;
JMC-260                        	724.473	0         	FIR01-73                       ;
JMC-262                        	711.879	0.018     	FIR01-73                       ;
JMC-265                        	718.685	0.063     	FIR01-73                       ;
JMC-267                        	719.461	0.117     	FIR01-73                       ;
JMC-268                        	695  	0.018     	FIR01-73                       ;
JMC-269                        	703.106	0.072     	FIR01-73                       ;
JMC-27                         	703.786	0.14      	FIR01-73                       ;
JMC-270                        	703.257	0.09      	FIR01-73                       ;
JMC-271                        	702.842	0.036     	FIR01-73                       ;
JMC-272                        	701  	0         	FIR01-73                       ;
JMC-273                        	695.31	0.261     	FIR01-73                       ;
JMC-274                        	699.861	0.072     	FIR01-73                       ;
JMC-275                        	698.033	0.135     	FIR01-73                       ;
JMC-276                        	696.428	0.225     	FIR01-73                       ;
JMC-277                        	697.365	0.252     	FIR01-73                       ;
JMC-278                        	704.003	0.045     	FIR01-73                       ;
JMC-279                        	703.972	0         	FIR01-73                       ;
JMC-28                         	705.245	0.009     	FIR01-73                       ;
JMC-280                        	703.581	0.072     	FIR01-73                       ;
JMC-281                        	699.814	0.126     	FIR01-73                       ;
JMC-282                        	698.623	0.153     	FIR01-73                       ;
JMC-283                        	697.705	0.099     	FIR01-73                       ;
JMC-284                        	697  	0.144     	FIR01-73                       ;
JMC-285                        	696.336	0.081     	FIR01-73                       ;
JMC-286                        	701.844	0         	FIR01-73                       ;
JMC-287                        	708.214	0.09      	FIR01-73                       ;
JMC-288                        	708.951	0.216     	FIR01-73                       ;
JMC-289                        	708.968	0.189     	FIR01-73                       ;
JMC-29                         	700.981	0         	FIR01-73                       ;
JMC-290                        	708  	0.081     	FIR01-73                       ;
JMC-291                        	705.441	0         	FIR01-73                       ;
JMC-293                        	712  	0         	FIR01-73                       ;
JMC-294                        	717.52	0         	FIR01-73                       ;
JMC-295                        	701.387	0         	FIR01-73                       ;
JMC-296                        	689.907	0.117     	FIR01-73                       ;
JMC-297                        	718.065	0         	FIR01-73                       ;
JMC-298                        	711.975	0         	FIR01-73                       ;
JMC-299                        	714.089	0         	FIR01-73                       ;
JMC-3                          	695  	0         	FIR01-73                       ;
JMC-30                         	701.985	0.09      	FIR01-73                       ;
JMC-300                        	717.585	0         	FIR01-73                       ;
JMC-301                        	705.604	0         	FIR01-73                       ;
JMC-302                        	719.696	0         	FIR01-73                       ;
JMC-303                        	719.597	0.126     	FIR01-73                       ;
JMC-304                        	719.167	0.081     	FIR01-73                       ;
JMC-305                        	712.489	0.18      	FIR01-73                       ;
JMC-306                        	683.977	0         	FIR01-73                       ;
JMC-307                        	717.613	0         	FIR01-73                       ;
JMC-308                        	724.66	0         	FIR01-73                       ;
JMC-309                        	683.84	0         	FIR01-73                       ;
JMC-31                         	700.909	0.063     	FIR01-73                       ;
JMC-310                        	680.624	0         	FIR01-73                       ;
JMC-311                        	705.362	0         	FIR01-73                       ;
JMC-312                        	698.909	0         	FIR01-73                       ;
JMC-314                        	680.801	0.018     	FIR01-73                       ;
JMC-32                         	703.526	0.153     	FIR01-73                       ;
JMC-33                         	704.072	0         	FIR01-73                       ;
JMC-34                         	706.106	0.216     	FIR01-73                       ;
JMC-35                         	706  	0.198     	FIR01-73                       ;
JMC-36                         	713.083	0.189     	FIR01-73                       ;
JMC-388                        	683.917	0         	FIR01-73                       ;
JMC-389                        	701.619	0         	FIR01-73                       ;
JMC-39                         	696.346	0         	FIR01-73                       ;
JMC-4                          	694  	0         	FIR01-73                       ;
JMC-40                         	697  	0         	FIR01-73                       ;
JMC-41                         	697.718	0         	FIR01-73                       ;
JMC-42                         	698.598	0         	FIR01-73                       ;
JMC-424                        	703.821	0         	FIR01-73                       ;
JMC-429                        	704.008	0         	FIR01-73                       ;
JMC-43                         	699.878	0.063     	FIR01-73                       ;
JMC-434                        	704.208	0.171     	FIR01-73                       ;
JMC-437                        	703.415	0         	FIR01-73                       ;
JMC-44                         	703.966	0         	FIR01-73                       ;
JMC-446                        	684.505	0.009     	FIR01-73                       ;
JMC-45                         	703.526	0         	FIR01-73                       ;
JMC-46                         	704.08	0         	FIR01-73                       ;
JMC-466                        	705.604	0         	FIR01-73                       ;
JMC-47                         	701.652	0.135     	FIR01-73                       ;
JMC-48                         	701.126	0.009     	FIR01-73                       ;
JMC-485                        	708.02	0         	FIR01-73                       ;
JMC-488                        	709  	0         	FIR01-73                       ;
JMC-49                         	700.67	0.009     	FIR01-73                       ;
JMC-491                        	709  	0.18      	FIR01-73                       ;
JMC-50                         	697.258	0.243     	FIR01-73                       ;
JMC-51                         	698.381	0.297     	FIR01-73                       ;
JMC-519                        	712.857	0         	FIR01-73                       ;
JMC-52                         	694.644	0.207     	FIR01-73                       ;
JMC-523                        	709.824	0         	FIR01-73                       ;
JMC-53                         	695.906	0.144     	FIR01-73                       ;
JMC-54                         	696.542	0.162     	FIR01-73                       ;
JMC-55                         	696  	0.153     	FIR01-73                       ;
JMC-553                        	717.385	0.252     	FIR01-73                       ;
JMC-56                         	696.996	0.09      	FIR01-73                       ;
JMC-57                         	696  	0.288     	FIR01-73                       ;
JMC-572                        	713.035	0         	FIR01-73                       ;
JMC-582                        	706.033	0         	FIR01-73                       ;
JMC-59                         	689.893	0.153     	FIR01-73                       ;
JMC-60                         	701.391	0         	FIR01-73                       ;
JMC-61                         	708  	0         	FIR01-73                       ;
JMC-62                         	708.249	0         	FIR01-73                       ;
JMC-63                         	703.181	0.108     	FIR01-73                       ;
JMC-64                         	705.275	0         	FIR01-73                       ;
JMC-643                        	705.607	0         	FIR01-73                       ;Inserido
JMC-644                        	705.607	0         	FIR01-73                       ;Inserido
JMC-645                        	713  	0         	FIR01-73                       ;
JMC-646                        	712.45	0         	FIR01-73                       ;Inserido
JMC-647                        	712.45	0         	FIR01-73                       ;Inserido
JMC-648                        	719.382	0         	FIR01-73                       ;Inserido
JMC-65                         	705.607	0.009     	FIR01-73                       ;
JMC-650                        	719.489	0         	FIR01-73                       ;Inserido
JMC-651                        	712.208	0.063     	FIR01-73                       ;Inserido
JMC-652                        	711.609	0         	FIR01-73                       ;Inserido
JMC-653                        	717.506	0         	FIR01-73                       ;Inserido
JMC-654                        	717.56	0         	FIR01-73                       ;Inserido
JMC-655                        	719.581	0         	FIR01-73                       ;Inserido
JMC-656                        	719.639	0         	FIR01-73                       ;Inserido
JMC-658                        	723.796	0         	FIR01-73                       ;Inserido
JMC-659                        	723.856	0         	FIR01-73                       ;Inserido
JMC-66                         	712  	0.018     	FIR01-73                       ;
JMC-662                        	717.98	0         	                               ;Inserido Hidrosan
JMC-663                        	721.94	0         	                               ;Inserido Hidrosan
JMC-664                        	726.42	0         	                               ;Inserido Hidrosan
JMC-665                        	725  	0         	                               ;Inserido Hidrosan
JMC-666                        	718  	0         	                               ;Inserido Hidrosan
JMC-668                        	710.4	0         	                               ;Inserido Hidrosan
JMC-669                        	703.31	0         	                               ;Inserido Hidrosan
JMC-67                         	695.308	0         	FIR01-73                       ;
JMC-670                        	702.61	0         	                               ;Inserido Hidrosan
JMC-671                        	701  	0         	                               ;Inserido Hidrosan
JMC-68                         	706.276	0.144     	FIR01-73                       ;
JMC-69                         	708.892	0.063     	FIR01-73                       ;
JMC-70                         	715.465	0.108     	FIR01-73                       ;
JMC-71                         	713.263	0         	FIR01-73                       ;
JMC-72                         	713.035	0         	FIR01-73                       ;
JMC-73                         	711.655	0.081     	FIR01-73                       ;
JMC-74                         	715.711	0.162     	FIR01-73                       ;
JMC-75                         	713.716	0.189     	FIR01-73                       ;
JMC-76                         	711.929	0.297     	FIR01-73                       ;
JMC-77                         	708.065	0.144     	FIR01-73                       ;
JMC-78                         	710.547	0.108     	FIR01-73                       ;
JMC-79                         	709.117	0.216     	FIR01-73                       ;
JMC-80                         	707.634	0         	FIR01-73                       ;
JMC-81                         	705.503	0.072     	FIR01-73                       ;
JMC-82                         	718.555	0         	FIR01-73                       ;
JMC-83                         	719.88	0         	FIR01-73                       ;
JMC-84                         	720.313	0.207     	FIR01-73                       ;
JMC-85                         	721.625	0         	FIR01-73                       ;
JMC-86                         	722.052	0.027     	FIR01-73                       ;
JMC-87                         	705.231	0.063     	FIR01-73                       ;
JMC-89                         	717.486	0.162     	FIR01-73                       ;
JMC-90                         	700.389	0         	FIR01-73                       ;
JMC-91                         	702.1	0         	FIR01-73                       ;
JMC-92                         	704.117	0         	FIR01-73                       ;
JMC-93                         	705.992	0         	FIR01-73                       ;
JMC-94                         	707.933	0         	FIR01-73                       ;
JMC-96                         	710.413	0.09      	FIR01-73                       ;
JMC-97                         	710.185	0         	FIR01-73                       ;
JMC-98                         	717.697	0         	FIR01-73                       ;
JMC-99                         	718.232	0         	FIR01-73                       ;
VMC-639_Up                     	695  	0         	FIR01-73                       ;
VMC-640_Dw                     	695  	0         	FIR01-73                       ;
VMC-640_Up                     	695  	0         	FIR01-73                       ;
VMC-641_Dw                     	701.627	0         	FIR01-73                       ;
VMC-641_Up                     	701.641	0         	FIR01-73                       ;
VMC-642_Dw                     	703.812	0         	FIR01-73                       ;
VMC-642_Up                     	703.821	0         	FIR01-73                       ;
VMC-643_Dw                     	704.025	0         	FIR01-73                       ;
VMC-643_Up                     	704.05	0.063     	FIR01-73                       ;
VMC-644_Dw                     	704.158	0         	FIR01-73                       ;
VMC-644_Up                     	704.183	0         	FIR01-73                       ;
VMC-645_Dw                     	703.386	0         	FIR01-73                       ;
VMC-645_Up                     	703.415	0         	FIR01-73                       ;
VMC-646_Dw                     	685.035	0         	FIR01-73                       ;
VMC-648_Dw                     	685.035	0         	FIR01-73                       ;
VMC-648_Up                     	685.056	0.135     	FIR01-73                       ;
VMC-649_Dw                     	692.149	0         	FIR01-73                       ;
VMC-649_Up                     	692.094	0         	FIR01-73                       ;
VMC-650_Dw                     	701  	0         	FIR01-73                       ;
VMC-650_Up                     	701.105	0.171     	FIR01-73                       ;
VMC-651_Dw                     	712.993	0         	FIR01-73                       ;
VMC-651_Up                     	712.986	0.108     	FIR01-73                       ;
VMC-652_Dw                     	705.217	0         	FIR01-73                       ;
VMC-652_Up                     	705.245	0         	FIR01-73                       ;
VMC-653_Dw                     	705.606	0         	FIR01-73                       ;
VMC-653_Up                     	705.605	0.027     	FIR01-73                       ;
VMC-654_Up                     	717.138	0         	FIR01-73                       ;
VMC-656_Dw                     	717  	0         	FIR01-73                       ;
VMC-656_Up                     	717  	0         	FIR01-73                       ;
VMC-657_Dw                     	710  	0         	FIR01-73                       ;
VMC-657_Up                     	710  	0         	FIR01-73                       ;
VMC-658_Dw                     	710.539	0.072     	FIR01-73                       ;
VMC-658_Up                     	710.51	0         	FIR01-73                       ;
VMC-659_Dw                     	717.367	0         	FIR01-73                       ;
VMC-659_Up                     	717.385	0         	FIR01-73                       ;
VMC-660_Dw                     	713.046	0         	FIR01-73                       ;
VMC-660_Up                     	713.035	0         	FIR01-73                       ;
VMC-661_Dw                     	705  	0         	FIR01-73                       ;
VMC-661_Up                     	704.652	0         	FIR01-73                       ;
VMC-662_Dw                     	705.653	0         	FIR01-73                       ;
VMC-662_Up                     	705.697	0         	FIR01-73                       ;
VMC-663_Dw                     	705.974	0         	FIR01-73                       ;
VMC-663_Up                     	705.925	0         	FIR01-73                       ;
VMC-664_Dw                     	695.308	0         	FIR01-73                       ;
VMC-664_Up                     	695.226	0.198     	FIR01-73                       ;
VMC-665_Dw                     	694.56	0         	FIR01-73                       ;
VMC-665_Up                     	694.545	0         	FIR01-73                       ;
VMC-666_Dw                     	709  	0         	FIR01-73                       ;
VMC-666_Up                     	709  	0         	FIR01-73                       ;
VMC-667_Dw                     	708.354	0.126     	FIR01-73                       ;
VMC-667_Up                     	708.339	0         	FIR01-73                       ;
VMC-668_Dw                     	709  	0.198     	FIR01-73                       ;
VMC-668_Up                     	709  	0         	FIR01-73                       ;
VMC-669_Dw                     	708.077	0.009     	FIR01-73                       ;
VMC-669_Up                     	708.112	0.099     	FIR01-73                       ;
VMC-670_Dw                     	684.008	0         	FIR01-73                       ;
VMC-670_Up                     	684.041	0.054     	FIR01-73                       ;
VMC-671_Dw                     	684.458	0         	FIR01-73                       ;
VMC-671_Up                     	684.594	0         	FIR01-73                       ;
VMC-672_Dw                     	681.717	0.027     	FIR01-73                       ;
VMC-672_Up                     	681.682	0         	FIR01-73                       ;
VMC-673_Dw                     	698.97	0         	FIR01-73                       ;
VMC-673_Up                     	698.97	0         	FIR01-73                       ;
VMC-674_Dw                     	705.362	0         	FIR01-73                       ;
VMC-674_Up                     	705.362	0         	FIR01-73                       ;
VMC-675_Dw                     	713  	0         	FIR01-73                       ;
VMC-675_Up                     	713  	0.252     	FIR01-73                       ;
VMC-696_Dw                     	705.607	0         	FIR01-73                       ;Inserido
VMC-696_Up                     	705.607	0         	FIR01-73                       ;Inserido
VMC-704_Dw                     	705.607	0         	                               ;
VMC-704_Up                     	705.607	0         	                               ;
VMC-705_Dw                     	702.689	0         	                               ;
VMC-705_Up                     	702.689	0         	                               ;
VMC-706_Dw                     	701.456	0         	                               ;
VMC-706_Up                     	701.456	0         	                               ;

[RESERVOIRS]
;ID                             	Head                	Pattern             
R-47_mod                           	722.1               	                    	;Nam x: 722,1 Namin: 710,5
R-48                           	744                 	                    	;NAmax.: 744,000 - NAmin.: 736,000

[COORDINATES]
;Node                           	X-Coord             	Y-Coord             
JMC-100                        	796450.169459312    	7593320.02467461    
JMC-101                        	796637.808998331    	7593357.86220163    
JMC-102                        	796455.758590541    	7593291.98002917    
JMC-103                        	796315.20586108     	7593001.47977242    
JMC-104                        	796249.376555944    	7592743.43690118    
JMC-108                        	796221.172391824    	7593334.32788021    
JMC-109                        	796650.148450244    	7593084.71805404    
JMC-110                        	796648.311881998    	7593076.33213249    
JMC-111                        	796657.684544515    	7593086.2537289     
JMC-112                        	796313.340813003    	7592877.94301882    
JMC-113                        	796315.197718171    	7592994.91124379    
JMC-114                        	796316.088390835    	7593014.21892447    
JMC-115                        	796686.104423866    	7593312.47258744    
JMC-116                        	796637.145416504    	7593133.83985008    
JMC-117                        	796625.800376487    	7593087.29086736    
JMC-118                        	796501.954325075    	7593062.87610922    
JMC-119                        	796492.83626968     	7593108.15371745    
JMC-120                        	796482.164243798    	7593161.14789065    
JMC-121                        	796471.502864504    	7593214.089196      
JMC-122                        	796450.793658961    	7593316.92508092    
JMC-123                        	796265.886628089    	7592755.17994091    
JMC-124                        	796746.705849918    	7593322.63890923    
JMC-125                        	796627.218940756    	7593080.10003831    
JMC-126                        	795760.978353163    	7592474.27110677    
JMC-127                        	795778.569126768    	7592856.21010053    
JMC-128                        	795800.418429289    	7592799.24085666    
JMC-129                        	795823.236386565    	7592738.89162723    
JMC-13                         	796060.79290601     	7592528.53789314    
JMC-130                        	795331.215117033    	7592593.59479456    
JMC-131                        	795754.637158709    	7592922.14714386    
JMC-132                        	795741.864195637    	7592531.23276853    
JMC-133                        	795794.929447364    	7592377.95072203    
JMC-134                        	795807.038666344    	7592316.71709105    
JMC-135                        	795820.219039206    	7592121.30622211    
JMC-136                        	795153.04797783     	7592552.60224583    
JMC-137                        	795212.115717436    	7592563.54791208    
JMC-138                        	795271.84946777     	7592569.53812979    
JMC-139                        	795721.764630951    	7592593.24531271    
JMC-14                         	795663.810826959    	7592709.2986476     
JMC-140                        	795500.155250146    	7592396.19882559    
JMC-141                        	795761.685088951    	7592100.69083997    
JMC-142                        	795797.622826576    	7592369.79341136    
JMC-143                        	796085.258121092    	7592350.81307567    
JMC-144                        	795339.380382618    	7592718.85257737    
JMC-145                        	795330.549203722    	7592650.56529108    
JMC-146                        	795320.916821592    	7592592.59828132    
JMC-147                        	795879.862575258    	7592422.91080576    
JMC-148                        	795009.275381498    	7592539.31799218    
JMC-149                        	796204.554558846    	7592998.50838504    
JMC-15                         	795463.707239903    	7592544.46039878    
JMC-150                        	796036.526979016    	7592819.46658232    
JMC-151                        	796248.655223397    	7592759.88228151    
JMC-152                        	796658.423364918    	7593083.17721774    
JMC-153                        	795363.337264271    	7592913.54077918    
JMC-155                        	795604.050211517    	7592698.20572875    
JMC-156                        	795482.517510378    	7592617.71774222    
JMC-157                        	795473.766443782    	7592673.99302814    
JMC-159                        	795404.028817967    	7592914.1289309     
JMC-16                         	795407.021131917    	7592784.11160051    
JMC-160                        	795598.978261064    	7592918.56437435    
JMC-161                        	795658.962422005    	7592919.94501771    
JMC-162                        	795737.894131168    	7592723.05017978    
JMC-163                        	795610.252358646    	7592641.57949967    
JMC-164                        	795533.966990673    	7592917.06802302    
JMC-165                        	795469.012579023    	7592915.57298039    
JMC-166                        	795538.579190674    	7592717.9197516     
JMC-167                        	795628.372761414    	7592575.49798473    
JMC-168                        	795759.54754895     	7592301.07746975    
JMC-17                         	795409.82821127     	7592662.15374562    
JMC-170                        	795027.826702795    	7592901.71946973    
JMC-171                        	795079.784907024    	7592903.80497318    
JMC-172                        	795131.743111252    	7592905.89047663    
JMC-173                        	795183.701315481    	7592907.97598008    
JMC-174                        	795235.65951971     	7592910.06148353    
JMC-175                        	795287.605678043    	7592912.4461677     
JMC-176                        	795935.029885576    	7592632.26649233    
JMC-177                        	795946.602963861    	7592570.0342124     
JMC-178                        	796453.146238683    	7593265.5073388     
JMC-179                        	796438.817138509    	7593050.16048084    
JMC-18                         	795466.021185117    	7593045.53866332    
JMC-180                        	796398.059515566    	7593254.41453323    
JMC-181                        	796230.499124065    	7592925.90163969    
JMC-182                        	796247.105447308    	7592868.13965585    
JMC-183                        	795483.314311376    	7592613.26341514    
JMC-184                        	795338.279199439    	7592651.18124188    
JMC-185                        	795354.062076843    	7592782.89265257    
JMC-186                        	795740.727996675    	7592652.99030188    
JMC-187                        	795401.038344086    	7593044.04296633    
JMC-188                        	795655.971028132    	7593049.91070064    
JMC-189                        	795592.995473293    	7593178.49574023    
JMC-19                         	795528.012632251    	7593177.00004326    
JMC-190                        	795602.34005366     	7592380.8558023     
JMC-191                        	795533.057169597    	7592385.14478436    
JMC-192                        	795761.957353267    	7592597.01932528    
JMC-193                        	795334.522931168    	7592581.13391493    
JMC-194                        	795352.252226477    	7592443.46524737    
JMC-195                        	795092.78940198     	7592550.44080147    
JMC-196                        	795092.971168035    	7592460.11218155    
JMC-197                        	795691.912717679    	7592071.71249632    
JMC-198                        	795702.852337464    	7592075.31509655    
JMC-199                        	795580.074431583    	7592241.9739627     
JMC-2                          	795016.397720613    	7592508.50484315    
JMC-20                         	795595.986867179    	7593048.53005728    
JMC-200                        	795732.897629654    	7592381.79082421    
JMC-201                        	796121.303735328    	7592733.03523326    
JMC-202                        	796101.496779123    	7592535.34437225    
JMC-203                        	795023.002883283    	7593018.87933434    
JMC-204                        	795075.003211556    	7593022.64231257    
JMC-205                        	795127.218379815    	7593025.29694709    
JMC-206                        	795179.003129303    	7593025.02652971    
JMC-207                        	795231.055951906    	7593024.75471245    
JMC-208                        	795283.108774507    	7593024.4828952     
JMC-209                        	795041.750020204    	7592554.83412508    
JMC-210                        	794993.041960478    	7592549.07016154    
JMC-211                        	795784.270116819    	7592477.07774001    
JMC-212                        	796086.859330256    	7592406.76436663    
JMC-213                        	796686.315690526    	7593092.03418609    
JMC-214                        	796243.738831392    	7592890.94785678    
JMC-215                        	796231.095340966    	7592921.99107279    
JMC-216                        	796229.708587264    	7592929.82713267    
JMC-217                        	796221.766948932    	7593053.5654744     
JMC-218                        	796219.257577972    	7593108.17594624    
JMC-219                        	796217.855704986    	7593163.00944726    
JMC-22                         	795725.672659706    	7592846.39132319    
JMC-220                        	796216.057393027    	7593217.76311296    
JMC-221                        	796214.967971718    	7593272.65953585    
JMC-222                        	796199.823734756    	7593330.06763514    
JMC-223                        	796207.774901037    	7593290.95238671    
JMC-224                        	796322.860961155    	7593354.4975895     
JMC-225                        	796409.737663126    	7593412.40959571    
JMC-226                        	796444.044890256    	7593432.55194219    
JMC-227                        	796592.649505402    	7593464.74115807    
JMC-228                        	796738.715087403    	7593493.43760952    
JMC-229                        	796678.351387671    	7593421.01727572    
JMC-23                         	795727.071283513    	7592785.62597211    
JMC-230                        	796679.982800861    	7593366.20384877    
JMC-231                        	796684.298177495    	7593320.1699897     
JMC-232                        	796680.820325229    	7593288.65713827    
JMC-233                        	796666.068465252    	7593253.27103433    
JMC-234                        	796654.758701045    	7593195.0626195     
JMC-235                        	796631.743483913    	7593136.12700764    
JMC-236                        	796623.161486813    	7593103.58104321    
JMC-237                        	796442.479328295    	7593318.47602735    
JMC-238                        	796374.444497974    	7593371.44493215    
JMC-239                        	796430.716054394    	7593416.62461928    
JMC-24                         	795723.945263027    	7592921.44071468    
JMC-240                        	796644.409604001    	7593367.11702534    
JMC-241                        	796630.324081427    	7593353.07911823    
JMC-242                        	796315.326643792    	7593008.07025891    
JMC-243                        	796330.861189628    	7593020.41918286    
JMC-244                        	796028.391112617    	7592824.85315213    
JMC-245                        	796522.676051214    	7593454.9486084     
JMC-246                        	796216.508560358    	7592982.95565972    
JMC-248                        	796006.55579317     	7592942.09026264    
JMC-25                         	795738.3966751      	7592665.54977568    
JMC-251                        	796267.4659467      	7592746.4545269     
JMC-252                        	796248.894465107    	7592746.26921145    
JMC-253                        	796229.235109871    	7592661.33472085    
JMC-256                        	796385.279300964    	7593386.97779305    
JMC-257                        	796739.484073616    	7593323.15647903    
JMC-259                        	796651.666926921    	7593076.98924119    
JMC-26                         	795749.831868186    	7592662.20114106    
JMC-260                        	796646.982624262    	7593082.88291487    
JMC-262                        	796316.496943626    	7593067.80185417    
JMC-265                        	796312.23798432     	7592796.96676889    
JMC-267                        	796316.025715482    	7592764.82293488    
JMC-268                        	795021.950793981    	7592514.08166401    
JMC-269                        	795607.307036162    	7592641.00936345    
JMC-27                         	795623.02528016     	7592574.48546936    
JMC-270                        	795613.200909718    	7592642.13183277    
JMC-271                        	795604.927354446    	7592691.20012735    
JMC-272                        	795473.644684968    	7592667.31916902    
JMC-273                        	795469.160988589    	7592909.12509983    
JMC-274                        	795406.86287592     	7592661.69899226    
JMC-275                        	795407.259162504    	7592773.76999776    
JMC-276                        	795534.1538817      	7592910.07982832    
JMC-277                        	795599.151762467    	7592911.02634044    
JMC-278                        	795631.280865104    	7592576.27341546    
JMC-279                        	795627.79501188     	7592578.67185489    
JMC-28                         	795748.219601669    	7592667.42401578    
JMC-280                        	795653.540499815    	7592453.98987688    
JMC-281                        	795341.187005175    	7592529.13725309    
JMC-282                        	795287.833723465    	7592450.60736546    
JMC-283                        	795226.767951843    	7592454.52804478    
JMC-284                        	795165.702180273    	7592458.44872408    
JMC-285                        	795104.633486525    	7592462.36959099    
JMC-286                        	795666.219697267    	7592390.78926313    
JMC-287                        	795955.332492193    	7592508.89972553    
JMC-288                        	795944.468259378    	7592569.6382182     
JMC-289                        	795932.636455231    	7592631.82223037    
JMC-29                         	795451.911177554    	7592607.37918917    
JMC-290                        	795922.836745524    	7592695.25905107    
JMC-291                        	795752.897559011    	7592666.28149169    
JMC-293                        	796101.136411002    	7592532.10294472    
JMC-294                        	796254.947576769    	7592744.11728033    
JMC-295                        	795539.466215064    	7592717.94560049    
JMC-296                        	795087.31029407     	7592809.81761032    
JMC-297                        	796638.40716795     	7593354.81937056    
JMC-298                        	796458.801421608    	7593292.57819879    
JMC-299                        	796320.917401284    	7593002.61132151    
JMC-3                          	795017.604757568    	7592517.75071057    
JMC-30                         	795539.30954941     	7592686.18819928    
JMC-300                        	796255.543090392    	7592741.32069607    
JMC-301                        	795760.491149171    	7592671.6203569     
JMC-302                        	796503.484101835    	7593055.18217816    
JMC-303                        	796496.186568412    	7593050.49333619    
JMC-304                        	796494.150234846    	7593061.2986574     
JMC-305                        	796460.791622477    	7593267.04796587    
JMC-306                        	795693.453460622    	7592067.54668906    
JMC-307                        	796440.484370529    	7593042.30272667    
JMC-308                        	796650.786977881    	7593081.14944458    
JMC-309                        	795448.747184226    	7593175.26173884    
JMC-31                         	795451.123759218    	7592611.76586737    
JMC-310                        	794974.145573725    	7593019.69547997    
JMC-311                        	796030.336494201    	7592942.361623      
JMC-312                        	796221.104047803    	7593330.15704722    
JMC-314                        	794974.270723077    	7593016.73651698    
JMC-32                         	795618.354052311    	7592630.53581709    
JMC-33                         	795639.998145631    	7592511.63387397    
JMC-34                         	795761.408676155    	7592599.96872656    
JMC-35                         	795772.990379613    	7592537.71322768    
JMC-36                         	796113.719860406    	7592665.50917977    
JMC-388                        	795457.971090133    	7593175.38791116    
JMC-389                        	795462.862023974    	7592549.16839326    
JMC-39                         	795105.041032767    	7592459.33724548    
JMC-4                          	795001.535338738    	7592546.77423677    
JMC-40                         	795166.109726514    	7592455.41637857    
JMC-41                         	795227.175498085    	7592451.49569927    
JMC-42                         	795288.241269706    	7592447.57501995    
JMC-424                        	795621.648417557    	7592581.71804333    
JMC-429                        	795630.411861755    	7592572.71647879    
JMC-43                         	795341.568376551    	7592526.16159008    
JMC-434                        	795644.624623121    	7592514.13721826    
JMC-437                        	795651.129833054    	7592450.48188921    
JMC-44                         	795628.928958245    	7592572.44251443    
JMC-446                        	795697.13683355     	7592073.43288527    
JMC-45                         	795650.592562192    	7592453.43338958    
JMC-46                         	795639.706867899    	7592513.23400975    
JMC-466                        	795760.606653464    	7592671.0328904     
JMC-47                         	795667.710967467    	7592385.8266431     
JMC-48                         	795602.896137853    	7592389.83861369    
JMC-485                        	795927.972774037    	7592696.22302905    
JMC-488                        	795939.837926435    	7592633.09871931    
JMC-49                         	795533.61325379     	7592394.12759575    
JMC-491                        	795951.341566132    	7592570.88889729    
JMC-50                         	795641.600265014    	7592262.23545135    
JMC-51                         	795702.052382236    	7592282.14334724    
JMC-519                        	796196.102936817    	7592403.11462601    
JMC-52                         	795191.530519099    	7592712.9194037     
JMC-523                        	796205.427941169    	7592994.00755704    
JMC-53                         	795243.488719334    	7592715.00490699    
JMC-54                         	795295.446923552    	7592717.09041043    
JMC-55                         	795202.575480238    	7592633.45651882    
JMC-553                        	796250.202795872    	7592738.5117317     
JMC-56                         	795210.158771758    	7592577.7977698     
JMC-57                         	795145.26038986     	7592569.12117617    
JMC-572                        	796317.264327496    	7593024.96311298    
JMC-582                        	796384.944800958    	7593386.89379307    
JMC-59                         	795083.563418363    	7592809.66721781    
JMC-60                         	795482.940869351    	7592615.35105425    
JMC-61                         	795923.295324937    	7592695.34534831    
JMC-62                         	795957.891166952    	7592509.37571498    
JMC-63                         	795887.553631164    	7592363.85910187    
JMC-64                         	795748.84107267     	7592665.41873965    
JMC-643                        	795764.112286234    	7592668.5685992     
JMC-644                        	795768.316520739    	7592669.32145945    
JMC-645                        	796201.525846695    	7592398.75605687    
JMC-646                        	796191.586205787    	7592399.45024141    
JMC-647                        	796187.717969505    	7592399.72039904    
JMC-648                        	796495.601629511    	7593053.59484962    
JMC-65                         	795761.193985216    	7592668.0460135     
JMC-650                        	796495.720210826    	7593052.96609756    
JMC-651                        	796453.952500316    	7593261.49198321    
JMC-652                        	796449.916062548    	7593264.85687869    
JMC-653                        	796439.162738613    	7593048.44475279    
JMC-654                        	796439.802717156    	7593045.2675861     
JMC-655                        	796502.396627367    	7593060.74375787    
JMC-656                        	796502.993546374    	7593057.86599514    
JMC-658                        	796626.192872407    	7593085.34192474    
JMC-659                        	796626.797866448    	7593082.33782046    
JMC-66                         	796099.259058152    	7592534.96870919    
JMC-662                        	796266.914866822    	7592749.50029531    
JMC-663                        	796388.638511234    	7592786.54531909    
JMC-664                        	796501.992278957    	7592746.49979754    
JMC-665                        	796445.421957735    	7592423.20759558    
JMC-666                        	796321.841492729    	7592403.09546376    
JMC-668                        	796064.169965496    	7592520.53691765    
JMC-669                        	795648.221953011    	7592448.91527911    
JMC-67                         	795093.89564079     	7592559.25924288    
JMC-670                        	795631.5531616      	7592432.27003403    
JMC-671                        	795486.022032197    	7592440.59267682    
JMC-68                         	796015.853261356    	7592889.90419876    
JMC-69                         	796026.320886159    	7592831.05176603    
JMC-70                         	796314.403604676    	7592938.7074612     
JMC-71                         	796316.882057806    	7593020.6243231     
JMC-72                         	796317.328245788    	7593025.69590284    
JMC-73                         	796315.003624759    	7593072.34158048    
JMC-74                         	796430.0596898      	7593095.51169957    
JMC-75                         	796419.392987212    	7593148.47943884    
JMC-76                         	796408.726284623    	7593201.44717811    
JMC-77                         	796387.395007908    	7593307.38308529    
JMC-78                         	796448.620728296    	7593327.71522187    
JMC-79                         	796439.502583984    	7593372.99327168    
JMC-80                         	796426.970165663    	7593423.35480493    
JMC-81                         	796369.510019717    	7593377.51440053    
JMC-82                         	796685.681577488    	7593421.42889753    
JMC-83                         	796687.155495754    	7593366.12103901    
JMC-84                         	796676.427048916    	7593310.47286927    
JMC-85                         	796674.297682076    	7593251.62105278    
JMC-86                         	796659.269416965    	7593193.68221769    
JMC-87                         	796030.370527795    	7592946.03579109    
JMC-89                         	796678.066669623    	7593481.52830944    
JMC-90                         	796208.245495671    	7593272.46547602    
JMC-91                         	796209.760329478    	7593217.6506628     
JMC-92                         	796211.336806305    	7593162.95769522    
JMC-93                         	796213.016084346    	7593108.14726452    
JMC-94                         	796214.689475384    	7593053.5289814     
JMC-96                         	796214.175180068    	7592976.94841494    
JMC-97                         	796208.495429985    	7592978.7012074     
JMC-98                         	796629.699881797    	7593356.17871189    
JMC-99                         	796645.941972836    	7593359.42361619    
R-47_mod                           	796065.101329       	7592509.39459503    
R-48                           	796650.264843799    	7593067.03780573    
VMC-639_Up                     	795020.397589416    	7592515.34010919    
VMC-640_Dw                     	795020.544759142    	7592513.89418025    
VMC-640_Up                     	795021.154598738    	7592514.68670512    
VMC-641_Dw                     	795462.222709752    	7592552.54332181    
VMC-641_Up                     	795462.408830266    	7592551.56079489    
VMC-642_Dw                     	795621.988903254    	7592579.92949305    
VMC-642_Up                     	795621.80189214     	7592580.91185085    
VMC-643_Dw                     	795631.576197646    	7592572.91419621    
VMC-643_Up                     	795632.559532988    	7592573.09599722    
VMC-644_Dw                     	795642.815059215    	7592513.80486876    
VMC-644_Up                     	795643.798608252    	7592513.98551009    
VMC-645_Dw                     	795651.370120578    	7592449.1618684     
VMC-645_Up                     	795651.191030434    	7592450.14570107    
VMC-646_Dw                     	794977.489420235    	7592899.68643147    
VMC-648_Dw                     	794978.011710984    	7592899.72189566    
VMC-648_Up                     	794978.966020008    	7592899.75829487    
VMC-649_Dw                     	795299.408379136    	7592912.61675734    
VMC-649_Up                     	795297.015772776    	7592912.58217484    
VMC-650_Dw                     	795452.792465048    	7592602.47027003    
VMC-650_Up                     	795453.289921313    	7592599.6993552     
VMC-651_Dw                     	796106.444854748    	7592600.73332925    
VMC-651_Up                     	796106.333245977    	7592599.73957703    
VMC-652_Dw                     	795747.041814256    	7592667.19929086    
VMC-652_Up                     	795748.024093838    	7592667.38671237    
VMC-653_Dw                     	795760.921010993    	7592669.43422451    
VMC-653_Up                     	795760.728068386    	7592670.41543455    
VMC-654_Up                     	796294.767207861    	7592392.59007862    
VMC-656_Dw                     	796291.364712723    	7592392.48171027    
VMC-656_Up                     	796292.362282796    	7592392.41203997    
VMC-657_Dw                     	796207.089828506    	7592985.71496653    
VMC-657_Up                     	796207.286327677    	7592984.73446254    
VMC-658_Dw                     	796217.115018495    	7592978.49371497    
VMC-658_Up                     	796216.96348632     	7592979.51343204    
VMC-659_Dw                     	796250.009507262    	7592739.66391417    
VMC-659_Up                     	796250.174954013    	7592738.67769544    
VMC-660_Dw                     	796317.176289897    	7593023.96419357    
VMC-660_Up                     	796317.264082432    	7593024.96033236    
VMC-661_Dw                     	796006.805590383    	7592943.15505635    
VMC-661_Up                     	796003.937402598    	7592942.65091966    
VMC-662_Dw                     	796375.82378615     	7593383.04508188    
VMC-662_Up                     	796376.576000464    	7593383.70400041    
VMC-663_Dw                     	796383.807618074    	7593388.64133888    
VMC-663_Up                     	796383.145022809    	7593389.39031652    
VMC-664_Dw                     	795093.875642267    	7592559.39405086    
VMC-664_Up                     	795093.496257596    	7592562.20056695    
VMC-665_Dw                     	795021.54098651     	7592549.478599      
VMC-665_Up                     	795020.549999973    	7592549.3446375     
VMC-666_Dw                     	795948.826897722    	7592570.43533547    
VMC-666_Up                     	795949.811018107    	7592570.61283777    
VMC-667_Dw                     	795962.741334572    	7592510.24697571    
VMC-667_Up                     	795961.757088705    	7592510.07017053    
VMC-668_Dw                     	795942.203384928    	7592633.53962537    
VMC-668_Up                     	795941.220316272    	7592633.35638778    
VMC-669_Dw                     	795929.829977675    	7592696.57665973    
VMC-669_Up                     	795930.812328139    	7592696.76370936    
VMC-670_Dw                     	795462.030055991    	7593175.48133556    
VMC-670_Up                     	795463.029791209    	7593175.50434626    
VMC-671_Dw                     	795697.757170403    	7592073.6371726     
VMC-671_Up                     	795698.706991993    	7592073.94996478    
VMC-672_Dw                     	794975.009167096    	7592998.33898649    
VMC-672_Up                     	794974.969061176    	7592999.33818192    
VMC-673_Dw                     	796221.818593295    	7593330.27426088    
VMC-673_Up                     	796221.4455         	7593330.23500002    
VMC-674_Dw                     	796031.007109418    	7592942.57425758    
VMC-674_Up                     	796030.701782427    	7592942.47323278    
VMC-675_Dw                     	796200.749612413    	7592402.62106874    
VMC-675_Up                     	796201.744018645    	7592402.51544561    
VMC-696_Dw                     	795766.598885273    	7592669.01387921    
VMC-696_Up                     	795765.614543065    	7592668.83761118    
VMC-704_Dw                     	795765.277103498    	7592671.20678411    
VMC-704_Up                     	795766.26680612     	7592671.34992292    
VMC-705_Dw                     	795469.963985751    	7592545.63954482    
VMC-705_Up                     	795468.981284857    	7592545.45434505    
VMC-706_Dw                     	795477.07379393     	7592674.60840486    
VMC-706_Up                     	795478.056920999    	7592674.79132879    

[PIPES]
;ID                            	Node1                          	Node2                          	Length    	Diameter  	Roughness 	MinorLoss 	Status    
TMC-10                         	JMC-142                        	JMC-63                         	90.06     	53.4      	130       	0         	OPEN      	;TMC-10
TMC-100                        	JMC-54                         	JMC-53                         	51.96     	53.4      	130       	0         	OPEN      	;TMC-100
TMC-101                        	JMC-53                         	JMC-52                         	51.96     	53.4      	130       	0         	OPEN      	;TMC-101
TMC-102                        	JMC-145                        	JMC-55                         	129.02    	53.4      	130       	0         	OPEN      	;TMC-102
TMC-103                        	JMC-174                        	JMC-173                        	51.96     	53.4      	130       	0         	OPEN      	;TMC-103
TMC-104                        	VMC-649_Up                     	JMC-175                        	9.4       	53.4      	130       	0         	OPEN      	;TMC-104
TMC-105                        	JMC-175                        	JMC-174                        	51.97     	53.4      	130       	0         	OPEN      	;TMC-105
TMC-106                        	JMC-174                        	JMC-207                        	114.71    	53.4      	130       	0         	OPEN      	;TMC-106
TMC-107                        	VMC-648_Up                     	JMC-210                        	350.73    	53.4      	130       	0         	OPEN      	;TMC-107
TMC-108                        	JMC-310                        	JMC-314                        	2.96      	53.4      	130       	0         	OPEN      	;TMC-108
TMC-109_VMC-1                  	JMC-314                        	VMC-672_Up                     	17.9      	53.4      	130       	0         	OPEN      	;TMC-109
TMC-109_VMC-2                  	VMC-672_Dw                     	VMC-648_Up                     	99.091    	53.4      	130       	0         	OPEN      	;TMC-109
TMC-11                         	JMC-63                         	JMC-143                        	198       	53.4      	130       	0         	OPEN      	;TMC-11
TMC-110                        	JMC-56                         	JMC-146                        	111.67    	53.4      	130       	0         	OPEN      	;TMC-110
TMC-111                        	JMC-57                         	JMC-56                         	65.43     	53.4      	130       	0         	OPEN      	;TMC-111
TMC-112                        	VMC-664_Up                     	JMC-57                         	52.19     	53.4      	130       	0         	OPEN      	;TMC-112
TMC-113                        	JMC-210                        	JMC-209                        	49.01     	53.4      	130       	0         	OPEN      	;TMC-113
TMC-114                        	JMC-203                        	JMC-204                        	52.1      	53.4      	130       	0         	OPEN      	;TMC-114
TMC-115                        	JMC-205                        	JMC-206                        	51.75     	53.4      	130       	0         	OPEN      	;TMC-115
TMC-116                        	JMC-207                        	JMC-208                        	52.02     	53.4      	130       	0         	OPEN      	;TMC-116
TMC-118                        	VMC-649_Dw                     	JMC-153                        	63.89     	53.4      	130       	0         	OPEN      	;TMC-118
TMC-12                         	JMC-197                        	JMC-306                        	4.44      	53.4      	130       	0         	OPEN      	;TMC-12
TMC-120                        	JMC-61                         	JMC-176                        	64.12     	53.4      	130       	0         	OPEN      	;TMC-120
TMC-121                        	JMC-148                        	JMC-195                        	84.19     	53.4      	130       	0         	OPEN      	;TMC-121
TMC-122                        	JMC-235                        	JMC-119                        	141.6     	53.4      	130       	0         	OPEN      	;TMC-122
TMC-123                        	JMC-74                         	JMC-73                         	117.29    	53.4      	130       	0         	OPEN      	;TMC-123
TMC-124                        	JMC-73                         	JMC-217                        	95.04     	53.4      	130       	0         	OPEN      	;TMC-124
TMC-125                        	JMC-234                        	JMC-120                        	175.77    	53.4      	130       	0         	OPEN      	;TMC-125
TMC-126                        	JMC-75                         	JMC-218                        	204.01    	53.4      	130       	0         	OPEN      	;TMC-126
TMC-127                        	JMC-233                        	JMC-121                        	198.34    	53.4      	130       	0         	OPEN      	;TMC-127
TMC-128                        	JMC-76                         	JMC-219                        	194.57    	53.4      	130       	0         	OPEN      	;TMC-128
TMC-129                        	JMC-84                         	JMC-305                        	219.81    	53.4      	130       	0         	OPEN      	;TMC-129
TMC-13                         	JMC-49                         	JMC-140                        	33.5      	53.4      	130       	0         	OPEN      	;TMC-13
TMC-130_SPL1_VMC-1_SPL2_3      	JMC-652                        	JMC-180                        	34.203    	53.4      	130       	0         	OPEN      	;TMC-130
TMC-131                        	JMC-180                        	JMC-220                        	185.53    	53.4      	130       	0         	OPEN      	;TMC-131
TMC-132                        	JMC-77                         	JMC-221                        	175.77    	53.4      	130       	0         	OPEN      	;TMC-132
TMC-133                        	JMC-229                        	JMC-79                         	243.46    	53.4      	130       	0         	OPEN      	;TMC-133
TMC-134                        	JMC-239                        	JMC-79                         	44.48     	53.4      	130       	0         	OPEN      	;TMC-134
TMC-135                        	JMC-79                         	JMC-78                         	46.16     	53.4      	130       	0         	OPEN      	;TMC-135
TMC-136                        	JMC-78                         	JMC-100                        	7.84      	53.4      	130       	0         	OPEN      	;TMC-136
TMC-137                        	JMC-238                        	JMC-77                         	65.31     	53.4      	130       	0         	OPEN      	;TMC-137
TMC-138                        	JMC-77                         	JMC-180                        	54        	53.4      	130       	0         	OPEN      	;TMC-138
TMC-139                        	JMC-76                         	JMC-75                         	53.99     	53.4      	130       	0         	OPEN      	;TMC-139
TMC-14                         	JMC-199                        	JMC-191                        	150.59    	53.4      	130       	0         	OPEN      	;TMC-14
TMC-140                        	JMC-75                         	JMC-74                         	53.99     	53.4      	130       	0         	OPEN      	;TMC-140
TMC-141                        	JMC-74                         	JMC-179                        	46.16     	53.4      	130       	0         	OPEN      	;TMC-141
TMC-142                        	JMC-89                         	JMC-228                        	61.76     	53.4      	130       	0         	OPEN      	;TMC-142
TMC-143                        	JMC-245                        	JMC-227                        	70.61     	53.4      	130       	0         	OPEN      	;TMC-143
TMC-144                        	JMC-94                         	JMC-93                         	54.61     	53.4      	130       	0         	OPEN      	;TMC-144
TMC-145                        	JMC-93                         	JMC-92                         	54.8      	53.4      	130       	0         	OPEN      	;TMC-145
TMC-146                        	JMC-92                         	JMC-91                         	54.68     	53.4      	130       	0         	OPEN      	;TMC-146
TMC-147                        	JMC-91                         	JMC-90                         	54.8      	53.4      	130       	0         	OPEN      	;TMC-147
TMC-148                        	JMC-90                         	JMC-223                        	18.48     	53.4      	130       	0         	OPEN      	;TMC-148
TMC-149_SPL1                   	JMC-248                        	JMC-87                         	24.792    	53.4      	130       	0         	OPEN      	;TMC-149
TMC-149_SPL2                   	JMC-87                         	JMC-96                         	185.588   	53.4      	130       	0         	OPEN      	;TMC-149
TMC-15                         	JMC-50                         	JMC-190                        	124.86    	53.4      	130       	0         	OPEN      	;TMC-15
TMC-150                        	JMC-68                         	JMC-181                        	217.49    	53.4      	130       	0         	OPEN      	;TMC-150
TMC-151                        	JMC-214                        	JMC-215                        	33.5      	53.4      	130       	0         	OPEN      	;TMC-151
TMC-152                        	JMC-248                        	JMC-68                         	52.97     	53.4      	130       	0         	OPEN      	;TMC-152
TMC-153                        	JMC-86                         	JMC-116                        	63.78     	53.4      	130       	0         	OPEN      	;TMC-153
TMC-154                        	JMC-85                         	JMC-86                         	59.83     	53.4      	130       	0         	OPEN      	;TMC-154
TMC-155                        	JMC-232                        	JMC-85                         	37.58     	53.4      	130       	0         	OPEN      	;TMC-155
TMC-156                        	JMC-83                         	JMC-231                        	46.18     	53.4      	130       	0         	OPEN      	;TMC-156
TMC-157                        	JMC-82                         	JMC-83                         	55.45     	53.4      	130       	0         	OPEN      	;TMC-157
TMC-158                        	JMC-89                         	JMC-82                         	60.71     	53.4      	130       	0         	OPEN      	;TMC-158
TMC-159                        	JMC-228                        	JMC-124                        	171.32    	53.4      	130       	0         	OPEN      	;TMC-159
TMC-16                         	JMC-193                        	VMC-650_Up                     	120.13    	53.4      	130       	0         	OPEN      	;TMC-16
TMC-160                        	VMC-662_Up                     	VMC-663_Up                     	8.68      	53.4      	130       	0         	OPEN      	;TMC-160
TMC-161                        	JMC-222                        	JMC-108                        	21.75     	53.4      	130       	0         	OPEN      	;TMC-161
TMC-162                        	JMC-108                        	JMC-224                        	103.6     	53.4      	130       	0         	OPEN      	;TMC-162
TMC-163                        	JMC-81                         	JMC-224                        	52.41     	53.4      	130       	0         	OPEN      	;TMC-163
TMC-164                        	VMC-662_Dw                     	JMC-81                         	8.39      	53.4      	130       	0         	OPEN      	;TMC-164
TMC-165                        	JMC-245                        	JMC-226                        	81.76     	53.4      	130       	0         	OPEN      	;TMC-165
TMC-166                        	JMC-226                        	JMC-80                         	19.38     	53.4      	130       	0         	OPEN      	;TMC-166
TMC-167                        	JMC-80                         	JMC-225                        	20.4      	53.4      	130       	0         	OPEN      	;TMC-167
TMC-168                        	JMC-223                        	JMC-222                        	39.89     	53.4      	130       	0         	OPEN      	;TMC-168
TMC-169                        	JMC-262                        	JMC-72                         	42.09     	53.4      	130       	0         	OPEN      	;TMC-169
TMC-17                         	VMC-650_Up                     	JMC-32                         	167.81    	53.4      	130       	0         	OPEN      	;TMC-17
TMC-170                        	JMC-265                        	JMC-267                        	32.34     	53.4      	130       	0         	OPEN      	;TMC-170
TMC-171                        	JMC-180                        	JMC-76                         	53.99     	53.4      	130       	0         	OPEN      	;TMC-171
TMC-172                        	JMC-94                         	JMC-217                        	7.07      	53.4      	130       	0         	OPEN      	;TMC-172
TMC-173                        	JMC-93                         	JMC-218                        	6.24      	53.4      	130       	0         	OPEN      	;TMC-173
TMC-174                        	JMC-92                         	JMC-219                        	6.51      	53.4      	130       	0         	OPEN      	;TMC-174
TMC-175                        	JMC-91                         	JMC-220                        	6.29      	53.4      	130       	0         	OPEN      	;TMC-175
TMC-176                        	JMC-90                         	JMC-221                        	6.72      	53.4      	130       	0         	OPEN      	;TMC-176
TMC-177                        	JMC-81                         	JMC-238                        	7.82      	53.4      	130       	0         	OPEN      	;TMC-177
TMC-178                        	JMC-80                         	JMC-239                        	7.7       	53.4      	130       	0         	OPEN      	;TMC-178
TMC-179                        	JMC-82                         	JMC-229                        	7.34      	53.4      	130       	0         	OPEN      	;TMC-179
TMC-18                         	JMC-32                         	JMC-186                        	124.33    	53.4      	130       	0         	OPEN      	;TMC-18
TMC-180                        	JMC-83                         	JMC-230                        	7.17      	53.4      	130       	0         	OPEN      	;TMC-180
TMC-181                        	JMC-84                         	JMC-232                        	22.24     	53.4      	130       	0         	OPEN      	;TMC-181
TMC-182                        	JMC-115                        	JMC-231                        	7.9       	53.4      	130       	0         	OPEN      	;TMC-182
TMC-183                        	JMC-85                         	JMC-233                        	8.39      	53.4      	130       	0         	OPEN      	;TMC-183
TMC-184                        	JMC-86                         	JMC-234                        	4.71      	53.4      	130       	0         	OPEN      	;TMC-184
TMC-185                        	JMC-181                        	JMC-215                        	3.95      	53.4      	130       	0         	OPEN      	;TMC-185
TMC-186                        	JMC-181                        	JMC-216                        	4         	53.4      	130       	0         	OPEN      	;TMC-186
TMC-187                        	JMC-73                         	JMC-262                        	4.78      	53.4      	130       	0         	OPEN      	;TMC-187
TMC-188                        	JMC-114                        	JMC-303                        	183.59    	53.4      	130       	0         	OPEN      	;TMC-188
TMC-189                        	JMC-303                        	JMC-152                        	165.38    	53.4      	130       	0         	OPEN      	;TMC-189
TMC-19                         	JMC-287                        	JMC-62                         	2.6       	53.4      	130       	0         	OPEN      	;TMC-19
TMC-190                        	JMC-117                        	JMC-118                        	126.14    	53.4      	130       	0         	OPEN      	;TMC-190
TMC-191_SPL1                   	JMC-303                        	JMC-650                        	2.52      	53.4      	130       	0         	OPEN      	;TMC-191
TMC-191_SPL2                   	JMC-648                        	JMC-304                        	7.829     	53.4      	130       	0         	OPEN      	;TMC-191
TMC-192_SPL1                   	JMC-304                        	JMC-651                        	204.047   	53.4      	130       	0         	OPEN      	;TMC-192
TMC-193                        	JMC-178                        	JMC-237                        	54        	53.4      	130       	0         	OPEN      	;TMC-193
TMC-194                        	JMC-72                         	JMC-179                        	123.84    	53.4      	130       	0         	OPEN      	;TMC-194
TMC-195                        	JMC-179                        	JMC-304                        	56.4      	53.4      	130       	0         	OPEN      	;TMC-195
TMC-196                        	JMC-122                        	JMC-241                        	183.01    	53.4      	130       	0         	OPEN      	;TMC-196
TMC-197                        	JMC-101                        	JMC-99                         	8.28      	53.4      	130       	0         	OPEN      	;TMC-197
TMC-198                        	JMC-99                         	JMC-230                        	34.69     	53.4      	130       	0         	OPEN      	;TMC-198
TMC-199                        	JMC-84                         	JMC-115                        	9.88      	53.4      	130       	0         	OPEN      	;TMC-199
TMC-20                         	JMC-62                         	VMC-667_Up                     	3.92      	53.4      	130       	0         	OPEN      	;TMC-20
TMC-200                        	JMC-78                         	JMC-240                        	199.58    	53.4      	130       	0         	OPEN      	;TMC-200
TMC-201                        	JMC-99                         	JMC-240                        	7.84      	53.4      	130       	0         	OPEN      	;TMC-201
TMC-202                        	JMC-311                        	VMC-674_Up                     	0.38      	53.4      	130       	0         	OPEN      	;TMC-202
TMC-203                        	JMC-108                        	VMC-673_Dw                     	4.05      	53.4      	130       	0         	OPEN      	;TMC-203
TMC-204                        	JMC-312                        	VMC-673_Up                     	0.35      	53.4      	130       	0         	OPEN      	;TMC-204
TMC-205                        	JMC-256                        	JMC-582                        	0.34      	53.4      	130       	0         	OPEN      	;TMC-205
TMC-206                        	VMC-663_Dw                     	JMC-256                        	2.22      	53.4      	130       	0         	OPEN      	;TMC-206
TMC-207                        	VMC-658_Dw                     	JMC-113                        	99.38     	53.4      	130       	0         	OPEN      	;TMC-207
TMC-208                        	JMC-246                        	VMC-658_Up                     	3.47      	53.4      	130       	0         	OPEN      	;TMC-208
TMC-209                        	JMC-96                         	VMC-658_Dw                     	3.32      	53.4      	130       	0         	OPEN      	;TMC-209
TMC-21                         	JMC-289                        	JMC-176                        	2.43      	53.4      	130       	0         	OPEN      	;TMC-21
TMC-210                        	VMC-674_Dw                     	JMC-87                         	3.57      	53.4      	130       	0         	OPEN      	;TMC-210
TMC-211                        	JMC-112                        	JMC-265                        	80.93     	53.4      	130       	0         	OPEN      	;TMC-211
TMC-212                        	JMC-182                        	JMC-214                        	23.04     	53.4      	130       	0         	OPEN      	;TMC-212
TMC-213                        	JMC-267                        	JMC-123                        	51.02     	53.4      	130       	0         	OPEN      	;TMC-213
TMC-214                        	JMC-244                        	JMC-150                        	9.75      	53.4      	130       	0         	OPEN      	;TMC-214
TMC-215                        	JMC-244                        	JMC-69                         	6.53      	53.4      	130       	0         	OPEN      	;TMC-215
TMC-216_VMC-1                  	JMC-553                        	VMC-659_Up                     	0.668     	53.4      	130       	0         	OPEN      	;TMC-216
TMC-216_VMC-2                  	VMC-659_Dw                     	JMC-104                        	4.323     	53.4      	130       	0         	OPEN      	;TMC-216
TMC-217                        	JMC-294                        	JMC-104                        	5.61      	53.4      	130       	0         	OPEN      	;TMC-217
TMC-218                        	JMC-252                        	JMC-151                        	13.61     	53.4      	130       	0         	OPEN      	;TMC-218
TMC-219                        	JMC-25                         	JMC-186                        	12.77     	53.4      	130       	0         	OPEN      	;TMC-219
TMC-22_VMC-1                   	JMC-201                        	VMC-669_Up                     	194.281   	53.4      	130       	0         	OPEN      	;TMC-22
TMC-22_VMC-2                   	VMC-669_Dw                     	JMC-485                        	2.389     	53.4      	130       	0         	OPEN      	;TMC-22
TMC-220                        	JMC-235                        	JMC-116                        	5.86      	53.4      	130       	0         	OPEN      	;TMC-220
TMC-221                        	JMC-275                        	JMC-16                         	10.34     	108.4     	130       	0         	OPEN      	;TMC-221
TMC-222                        	JMC-276                        	JMC-166                        	192.08    	108.4     	130       	0         	OPEN      	;TMC-222
TMC-223                        	JMC-277                        	JMC-155                        	212.73    	108.4     	130       	0         	OPEN      	;TMC-223
TMC-224                        	JMC-155                        	JMC-271                        	7.06      	108.4     	130       	0         	OPEN      	;TMC-224
TMC-225                        	JMC-17                         	JMC-275                        	111.57    	108.4     	130       	0         	OPEN      	;TMC-225
TMC-226                        	JMC-162                        	JMC-14                         	75.3      	108.4     	130       	0         	OPEN      	;TMC-226
TMC-227                        	JMC-14                         	JMC-155                        	60.74     	108.4     	130       	0         	OPEN      	;TMC-227
TMC-228                        	JMC-155                        	JMC-30                         	65.8      	108.4     	130       	0         	OPEN      	;TMC-228
TMC-229_VMC-1                  	JMC-30                         	VMC-706_Up                     	62.759    	108.4     	130       	0         	OPEN      	;TMC-229
TMC-229_VMC-2                  	VMC-706_Dw                     	JMC-157                        	3.862     	108.4     	130       	0         	OPEN      	;TMC-229
TMC-23                         	JMC-61                         	JMC-290                        	0.47      	53.4      	130       	0         	OPEN      	;TMC-23
TMC-230                        	JMC-157                        	JMC-17                         	64.98     	108.4     	130       	0         	OPEN      	;TMC-230
TMC-231                        	JMC-274                        	JMC-17                         	3         	108.4     	130       	0         	OPEN      	;TMC-231
TMC-232                        	JMC-272                        	JMC-157                        	6.67      	108.4     	130       	0         	OPEN      	;TMC-232
TMC-233                        	JMC-166                        	JMC-30                         	31.72     	108.4     	130       	0         	OPEN      	;TMC-233
TMC-234                        	JMC-212                        	JMC-293                        	126.06    	108.4     	130       	0         	OPEN      	;TMC-234
TMC-235                        	JMC-157                        	JMC-273                        	235.02    	108.4     	130       	0         	OPEN      	;TMC-235
TMC-236                        	JMC-171                        	JMC-59                         	94.15     	108.4     	130       	0         	OPEN      	;TMC-236
TMC-237                        	JMC-59                         	VMC-664_Up                     	247.5     	108.4     	130       	0         	OPEN      	;TMC-237
TMC-238                        	JMC-170                        	VMC-648_Up                     	48.87     	108.4     	130       	0         	OPEN      	;TMC-238
TMC-239                        	JMC-170                        	JMC-171                        	51.96     	108.4     	130       	0         	OPEN      	;TMC-239
TMC-24                         	JMC-36                         	JMC-201                        	67.9      	53.4      	130       	0         	OPEN      	;TMC-24
TMC-240                        	JMC-172                        	JMC-171                        	51.96     	108.4     	130       	0         	OPEN      	;TMC-240
TMC-241                        	JMC-173                        	JMC-172                        	51.96     	108.4     	130       	0         	OPEN      	;TMC-241
TMC-243_SPL1                   	VMC-656_Dw                     	JMC-645                        	89.995    	108.4     	130       	0         	OPEN      	;TMC-243
TMC-243_SPL4                   	JMC-646                        	JMC-647                        	3.875     	108.4     	130       	0         	OPEN      	;TMC-243
TMC-243_SPL6                   	JMC-647                        	JMC-212                        	101.033   	108.4     	130       	0         	OPEN      	;TMC-243
TMC-245_SPL1                   	JMC-125                        	JMC-659                        	2.276     	108.4     	130       	0         	OPEN      	;TMC-245
TMC-245_SPL2                   	JMC-117                        	JMC-236                        	16.494    	108.4     	130       	0         	OPEN      	;TMC-245
TMC-245_SPL3                   	JMC-658                        	JMC-117                        	1.987     	108.4     	130       	0         	OPEN      	;TMC-245
TMC-246                        	JMC-236                        	JMC-116                        	33.31     	108.4     	130       	0         	OPEN      	;TMC-246
TMC-247                        	JMC-213                        	JMC-124                        	239.43    	108.4     	130       	0         	OPEN      	;TMC-247
TMC-248_SPL1                   	JMC-251                        	JMC-662                        	3.074     	108.4     	130       	0         	OPEN      	;TMC-248
TMC-248_SPL2                   	JMC-662                        	JMC-123                        	5.786     	108.4     	130       	0         	OPEN      	;TMC-248
TMC-249                        	JMC-294                        	JMC-251                        	12.73     	108.4     	130       	0         	OPEN      	;TMC-249
TMC-25                         	JMC-66                         	VMC-651_Up                     	65.11     	53.4      	130       	0         	OPEN      	;TMC-25
TMC-250                        	JMC-290                        	JMC-26                         	176.01    	97.8      	130       	0         	OPEN      	;TMC-250
TMC-251                        	JMC-289                        	JMC-26                         	237.3     	97.8      	130       	0         	OPEN      	;TMC-251
TMC-252                        	JMC-34                         	JMC-192                        	3         	97.8      	130       	0         	OPEN      	;TMC-252
TMC-253                        	JMC-288                        	JMC-35                         	174.31    	97.8      	130       	0         	OPEN      	;TMC-253
TMC-254                        	JMC-35                         	JMC-211                        	61.63     	97.8      	130       	0         	OPEN      	;TMC-254
TMC-255_SPL1                   	JMC-286                        	JMC-47                         	5.179     	97.8      	130       	0         	OPEN      	;TMC-255
TMC-255_SPL2                   	JMC-47                         	JMC-51                         	109.151   	97.8      	130       	0         	OPEN      	;TMC-255
TMC-256                        	JMC-28                         	JMC-64                         	2.1       	97.8      	130       	0         	OPEN      	;TMC-256
TMC-257                        	JMC-301                        	JMC-466                        	0.6       	97.8      	130       	0         	OPEN      	;TMC-257
TMC-259                        	JMC-167                        	JMC-279                        	3.22      	116.6     	130       	0         	OPEN      	;TMC-259
TMC-26                         	JMC-293                        	JMC-202                        	3.26      	53.4      	130       	0         	OPEN      	;TMC-26
TMC-260                        	JMC-44                         	JMC-167                        	3.1       	116.6     	130       	0         	OPEN      	;TMC-260
TMC-261                        	JMC-46                         	JMC-44                         	60.14     	116.6     	130       	0         	OPEN      	;TMC-261
TMC-262                        	JMC-33                         	JMC-46                         	1.63      	116.6     	130       	0         	OPEN      	;TMC-262
TMC-263                        	JMC-45                         	JMC-33                         	59.12     	116.6     	130       	0         	OPEN      	;TMC-263
TMC-264                        	JMC-437                        	JMC-45                         	3         	116.6     	130       	0         	OPEN      	;TMC-264
TMC-265                        	JMC-39                         	JMC-196                        	12.09     	116.6     	130       	0         	OPEN      	;TMC-265
TMC-266                        	JMC-40                         	JMC-39                         	61.15     	116.6     	130       	0         	OPEN      	;TMC-266
TMC-267                        	JMC-41                         	JMC-40                         	61.15     	116.6     	130       	0         	OPEN      	;TMC-267
TMC-268                        	JMC-42                         	JMC-41                         	61.15     	116.6     	130       	0         	OPEN      	;TMC-268
TMC-269                        	JMC-194                        	JMC-42                         	64.1      	116.6     	130       	0         	OPEN      	;TMC-269
TMC-27                         	JMC-195                        	JMC-285                        	88.8      	53.4      	130       	0         	OPEN      	;TMC-27
TMC-270                        	JMC-167                        	JMC-278                        	3.01      	116.6     	130       	0         	OPEN      	;TMC-270
TMC-271                        	JMC-43                         	JMC-281                        	3         	116.6     	130       	0         	OPEN      	;TMC-271
TMC-272                        	JMC-40                         	JMC-284                        	3.06      	116.6     	130       	0         	OPEN      	;TMC-272
TMC-273                        	JMC-41                         	JMC-283                        	3.06      	116.6     	130       	0         	OPEN      	;TMC-273
TMC-274                        	JMC-42                         	JMC-282                        	3.06      	116.6     	130       	0         	OPEN      	;TMC-274
TMC-275                        	JMC-27                         	JMC-167                        	5.44      	116.6     	130       	0         	OPEN      	;TMC-275
TMC-276_VMC-1                  	JMC-15                         	VMC-705_Up                     	5.863     	116.6     	130       	0         	OPEN      	;TMC-276
TMC-276_VMC-2                  	VMC-705_Dw                     	JMC-27                         	156.148   	116.6     	130       	0         	OPEN      	;TMC-276
TMC-277                        	VMC-640_Up                     	JMC-196                        	90.14     	116.6     	130       	0         	OPEN      	;TMC-277
TMC-278                        	JMC-45                         	JMC-280                        	3         	116.6     	130       	0         	OPEN      	;TMC-278
TMC-279                        	JMC-285                        	JMC-39                         	3.06      	116.6     	130       	0         	OPEN      	;TMC-279
TMC-28                         	JMC-48                         	JMC-49                         	69.37     	53.4      	130       	0         	OPEN      	;TMC-28
TMC-280                        	JMC-43                         	JMC-194                        	83.33     	116.6     	130       	0         	OPEN      	;TMC-280
TMC-281                        	JMC-15                         	JMC-43                         	123.42    	116.6     	130       	0         	OPEN      	;TMC-281
TMC-282                        	JMC-271                        	JMC-163                        	49.87     	156.4     	130       	0         	OPEN      	;TMC-282
TMC-283                        	JMC-15                         	JMC-389                        	4.78      	156.4     	130       	0         	OPEN      	;TMC-283
TMC-284                        	JMC-163                        	JMC-424                        	60.9      	156.4     	130       	0         	OPEN      	;TMC-284
TMC-285                        	JMC-183                        	JMC-29                         	31.93     	156.4     	130       	0         	OPEN      	;TMC-285
TMC-286_VMC-1                  	JMC-424                        	VMC-642_Up                     	1.32      	156.4     	130       	0         	OPEN      	;TMC-286
TMC-286_VMC-2                  	VMC-642_Dw                     	JMC-27                         	6.04      	156.4     	130       	0         	OPEN      	;TMC-286
TMC-288                        	VMC-650_Dw                     	JMC-29                         	4.98      	156.4     	130       	0         	OPEN      	;TMC-288
TMC-289                        	JMC-270                        	JMC-163                        	3         	156.4     	130       	0         	OPEN      	;TMC-289
TMC-29_VMC-1                   	JMC-198                        	VMC-671_Up                     	4.859     	53.4      	130       	0         	OPEN      	;TMC-29
TMC-29_VMC-2                   	VMC-671_Dw                     	JMC-446                        	1.152     	53.4      	130       	0         	OPEN      	;TMC-29
TMC-290                        	JMC-269                        	JMC-163                        	3         	156.4     	130       	0         	OPEN      	;TMC-290
TMC-291                        	JMC-156                        	JMC-272                        	50.35     	156.4     	130       	0         	OPEN      	;TMC-291
TMC-292                        	JMC-183                        	JMC-60                         	2.12      	156.4     	130       	0         	OPEN      	;TMC-292
TMC-293                        	JMC-60                         	JMC-156                        	2.4       	156.4     	130       	0         	OPEN      	;TMC-293
TMC-294_VMC-1                  	JMC-389                        	VMC-641_Up                     	2.933     	156.4     	130       	0         	OPEN      	;TMC-294
TMC-294_VMC-2                  	VMC-641_Dw                     	VMC-650_Up                     	48.458    	156.4     	130       	0         	OPEN      	;TMC-294
TMC-295                        	VMC-640_Up                     	JMC-268                        	1         	156.4     	130       	0         	OPEN      	;TMC-295
TMC-296                        	JMC-3                          	VMC-639_Up                     	3.69      	116.6     	130       	0         	OPEN      	;TMC-296
TMC-297_VMC-1                  	JMC-4                          	VMC-665_Up                     	19.675    	156.4     	130       	0         	OPEN      	;TMC-297
TMC-297_VMC-2_SPL1             	VMC-665_Dw                     	JMC-67                         	73.042    	156.4     	130       	0         	OPEN      	;TMC-297
TMC-297_VMC-2_SPL2             	JMC-67                         	JMC-60                         	393.294   	156.4     	130       	0         	OPEN      	;TMC-297
TMC-298_SPL1                   	JMC-65                         	JMC-291                        	4.285     	156.4     	130       	0         	OPEN      	;TMC-298
TMC-298_SPL3                   	JMC-291                        	JMC-64                         	2.095     	156.4     	130       	0         	OPEN      	;TMC-298
TMC-299                        	VMC-640_Dw                     	JMC-2                          	6.79      	116.6     	130       	0         	OPEN      	;TMC-299
TMC-30                         	JMC-50                         	JMC-198                        	196.57    	53.4      	130       	0         	OPEN      	;TMC-30
TMC-300                        	JMC-101                        	JMC-98                         	8.28      	156.4     	130       	0         	OPEN      	;TMC-300
TMC-301_SPL1                   	JMC-213                        	JMC-109                        	36.873    	156.4     	130       	0         	OPEN      	;TMC-301
TMC-301_SPL2                   	JMC-109                        	JMC-125                        	23.374    	156.4     	130       	0         	OPEN      	;TMC-301
TMC-301_SPL4                   	JMC-648                        	JMC-307                        	55.728    	156.4     	130       	0         	OPEN      	;TMC-301
TMC-301_SPL4_6ZYH              	JMC-125                        	JMC-302                        	126.134   	156.4     	130       	0         	OPEN      	;TMC-301
TMC-301_SPL4_QN74              	JMC-302                        	JMC-648                        	8.035     	156.4     	130       	0         	OPEN      	;TMC-301
TMC-301_SPL6                   	JMC-307                        	JMC-243                        	112.206   	156.4     	130       	0         	OPEN      	;TMC-301
TMC-302                        	JMC-308                        	JMC-109                        	3.64      	156.4     	130       	0         	OPEN      	;TMC-302
TMC-303                        	JMC-72                         	JMC-572                        	0.74      	156.4     	130       	0         	OPEN      	;TMC-303
TMC-304                        	JMC-152                        	JMC-111                        	3.16      	156.4     	130       	0         	OPEN      	;TMC-304
TMC-305_VMC-1                  	JMC-97                         	VMC-657_Up                     	6.649     	252       	130       	0         	OPEN      	;TMC-305
TMC-305_VMC-2                  	VMC-657_Dw                     	JMC-523                        	8.952     	252       	130       	0         	OPEN      	;TMC-305
TMC-307                        	JMC-130                        	JMC-31                         	121.22    	53.4      	130       	0         	OPEN      	;TMC-307
TMC-308                        	VMC-652_Dw                     	JMC-25                         	8.79      	53.4      	130       	0         	OPEN      	;TMC-308
TMC-309_VMC-1                  	JMC-466                        	VMC-653_Up                     	1.128     	97.8      	130       	0         	OPEN      	;TMC-309
TMC-309_VMC-2                  	VMC-653_Dw                     	JMC-65                         	1.913     	97.8      	130       	0         	OPEN      	;TMC-309
TMC-31                         	JMC-200                        	JMC-168                        	84.94     	53.4      	130       	0         	OPEN      	;TMC-31
TMC-310_SPL1                   	JMC-65                         	JMC-643                        	2.963     	252       	130       	0         	OPEN      	;TMC-310
TMC-310_SPL2_VMC-1             	JMC-643                        	VMC-696_Up                     	2.025     	252       	130       	0         	OPEN      	;TMC-310
TMC-310_SPL2_VMC-2             	VMC-696_Dw                     	JMC-644                        	2.244     	252       	130       	0         	OPEN      	;TMC-310
TMC-310_SPL4                   	JMC-644                        	VMC-661_Up                     	510.339   	252       	130       	0         	OPEN      	;TMC-310
TMC-312                        	VMC-661_Dw                     	JMC-97                         	204.66    	252       	130       	0         	OPEN      	;TMC-312
TMC-313                        	JMC-97                         	JMC-260                        	463.87    	252       	130       	0         	OPEN      	;TMC-313
TMC-314                        	JMC-70                         	JMC-113                        	56.17     	108.4     	130       	0         	OPEN      	;TMC-314
TMC-315                        	JMC-112                        	JMC-70                         	60.73     	108.4     	130       	0         	OPEN      	;TMC-315
TMC-316                        	JMC-96                         	JMC-216                        	49.59     	53.4      	130       	0         	OPEN      	;TMC-316
TMC-318                        	JMC-181                        	JMC-70                         	84.87     	53.4      	130       	0         	OPEN      	;TMC-318
TMC-319                        	JMC-64                         	JMC-26                         	3.36      	97.8      	130       	0         	OPEN      	;TMC-319
TMC-32                         	JMC-51                         	JMC-141                        	190.87    	53.4      	130       	0         	OPEN      	;TMC-32
TMC-320                        	JMC-177                        	JMC-62                         	61.66     	53.4      	130       	0         	OPEN      	;TMC-320
TMC-321                        	JMC-177                        	JMC-288                        	2.17      	53.4      	130       	0         	OPEN      	;TMC-321
TMC-322                        	JMC-176                        	JMC-177                        	63.26     	53.4      	130       	0         	OPEN      	;TMC-322
TMC-323                        	JMC-176                        	JMC-488                        	4.88      	53.4      	130       	0         	OPEN      	;TMC-323
TMC-324                        	VMC-667_Dw                     	JMC-13                         	99.67     	53.4      	130       	0         	OPEN      	;TMC-324
TMC-325                        	JMC-66                         	JMC-202                        	2.27      	53.4      	130       	0         	OPEN      	;TMC-325
TMC-326                        	JMC-13                         	JMC-66                         	38.97     	53.4      	130       	0         	OPEN      	;TMC-326
TMC-327                        	VMC-675_Dw                     	JMC-519                        	4.67      	53.4      	130       	0         	OPEN      	;TMC-327
TMC-328                        	JMC-253                        	VMC-675_Up                     	260.1     	53.4      	130       	0         	OPEN      	;TMC-328
TMC-329                        	JMC-553                        	JMC-253                        	79.95     	53.4      	130       	0         	OPEN      	;TMC-329
TMC-33                         	JMC-200                        	JMC-133                        	62.11     	53.4      	130       	0         	OPEN      	;TMC-33
TMC-330                        	JMC-104                        	JMC-252                        	2.87      	53.4      	130       	0         	OPEN      	;TMC-330
TMC-331                        	JMC-246                        	JMC-94                         	70.55     	53.4      	130       	0         	OPEN      	;TMC-331
TMC-332_VMC-1                  	JMC-437                        	VMC-645_Up                     	0.841     	116.6     	130       	0         	OPEN      	;TMC-332
TMC-332_VMC-2                  	VMC-645_Dw                     	JMC-286                        	60.779    	116.6     	130       	0         	OPEN      	;TMC-332
TMC-333                        	JMC-28                         	JMC-162                        	56.54     	97.8      	130       	0         	OPEN      	;TMC-333
TMC-334_VMC-1                  	JMC-434                        	VMC-644_Up                     	1.34      	97.8      	130       	0         	OPEN      	;TMC-334
TMC-334_VMC-2                  	VMC-644_Dw                     	JMC-46                         	3.66      	97.8      	130       	0         	OPEN      	;TMC-334
TMC-335                        	JMC-35                         	JMC-434                        	130.42    	97.8      	130       	0         	OPEN      	;TMC-335
TMC-336_VMC-1                  	JMC-491                        	VMC-666_Up                     	2.054     	53.4      	130       	0         	OPEN      	;TMC-336
TMC-336_VMC-2                  	VMC-666_Dw                     	JMC-177                        	2.757     	53.4      	130       	0         	OPEN      	;TMC-336
TMC-337_VMC-1                  	JMC-488                        	VMC-668_Up                     	1.905     	53.4      	130       	0         	OPEN      	;TMC-337
TMC-337_VMC-2                  	VMC-668_Dw                     	JMC-36                         	174.855   	53.4      	130       	0         	OPEN      	;TMC-337
TMC-339                        	JMC-69                         	JMC-182                        	223.72    	53.4      	130       	0         	OPEN      	;TMC-339
TMC-34                         	JMC-280                        	JMC-126                        	109.26    	53.4      	130       	0         	OPEN      	;TMC-34
TMC-340                        	JMC-182                        	JMC-112                        	66.97     	108.4     	130       	0         	OPEN      	;TMC-340
TMC-341                        	JMC-123                        	JMC-182                        	114.43    	108.4     	130       	0         	OPEN      	;TMC-341
TMC-342                        	JMC-69                         	JMC-68                         	59.74     	53.4      	130       	0         	OPEN      	;TMC-342
TMC-346                        	VMC-663_Up                     	JMC-225                        	35.15     	53.4      	130       	0         	OPEN      	;TMC-346
TMC-347                        	JMC-124                        	JMC-257                        	7.24      	108.4     	130       	0         	OPEN      	;TMC-347
TMC-348                        	JMC-237                        	JMC-100                        	7.84      	53.4      	130       	0         	OPEN      	;TMC-348
TMC-349                        	JMC-100                        	JMC-122                        	3.17      	156.4     	130       	0         	OPEN      	;TMC-349
TMC-35                         	JMC-168                        	JMC-135                        	189.6     	53.4      	130       	0         	OPEN      	;TMC-35
TMC-350                        	JMC-98                         	JMC-100                        	183.01    	156.4     	130       	0         	OPEN      	;TMC-350
TMC-351                        	JMC-122                        	JMC-102                        	25.42     	156.4     	130       	0         	OPEN      	;TMC-351
TMC-352                        	JMC-102                        	JMC-305                        	25.42     	156.4     	130       	0         	OPEN      	;TMC-352
TMC-353                        	JMC-305                        	JMC-121                        	53.99     	156.4     	130       	0         	OPEN      	;TMC-353
TMC-354                        	JMC-305                        	JMC-178                        	7.79      	53.4      	130       	0         	OPEN      	;TMC-354
TMC-355                        	JMC-121                        	JMC-120                        	53.97     	156.4     	130       	0         	OPEN      	;TMC-355
TMC-356                        	JMC-120                        	JMC-119                        	54.02     	156.4     	130       	0         	OPEN      	;TMC-356
TMC-357                        	JMC-119                        	JMC-118                        	46.15     	156.4     	130       	0         	OPEN      	;TMC-357
TMC-358_SPL1                   	JMC-118                        	JMC-655                        	2.176     	156.4     	130       	0         	OPEN      	;TMC-358
TMC-358_SPL4                   	JMC-656                        	JMC-302                        	2.726     	156.4     	130       	0         	OPEN      	;TMC-358
TMC-359                        	JMC-28                         	VMC-652_Up                     	0.2       	53.4      	130       	0         	OPEN      	;TMC-359
TMC-36                         	JMC-47                         	JMC-48                         	64.89     	53.4      	130       	0         	OPEN      	;TMC-36
TMC-360                        	JMC-259                        	JMC-308                        	4.25      	155.6     	120       	0         	OPEN      	;TMC-360
TMC-361                        	JMC-110                        	JMC-259                        	3.42      	155.6     	120       	0         	OPEN      	;TMC-361
TMC-362                        	JMC-388                        	JMC-309                        	9.22      	53.4      	130       	0         	OPEN      	;TMC-362
TMC-363                        	VMC-670_Dw                     	JMC-388                        	4.06      	53.4      	130       	0         	OPEN      	;TMC-363
TMC-364_VMC-1                  	JMC-572                        	VMC-660_Up                     	0.503     	156.4     	130       	0         	OPEN      	;TMC-364
TMC-364_VMC-2                  	VMC-660_Dw                     	JMC-71                         	3.849     	156.4     	130       	0         	OPEN      	;TMC-364
TMC-365                        	JMC-523                        	JMC-149                        	4.58      	252       	130       	0         	OPEN      	;TMC-365
TMC-366                        	JMC-429                        	JMC-44                         	1.51      	97.8      	130       	0         	OPEN      	;TMC-366
TMC-367                        	VMC-651_Dw                     	JMC-36                         	65.61     	53.4      	130       	0         	OPEN      	;TMC-367
TMC-368                        	JMC-294                        	JMC-300                        	2.86      	108.4     	130       	0         	OPEN      	;TMC-368
TMC-369_SPL1                   	JMC-243                        	JMC-71                         	13.971    	156.4     	130       	0         	OPEN      	;TMC-369
TMC-369_SPL2                   	JMC-71                         	JMC-114                        	6.449     	156.4     	130       	0         	OPEN      	;TMC-369
TMC-37                         	JMC-446                        	JMC-197                        	5.5       	53.4      	130       	0         	OPEN      	;TMC-37
TMC-370                        	JMC-114                        	JMC-242                        	6.19      	156.4     	130       	0         	OPEN      	;TMC-370
TMC-371                        	JMC-242                        	JMC-103                        	6.59      	156.4     	130       	0         	OPEN      	;TMC-371
TMC-372                        	JMC-103                        	JMC-113                        	6.56      	156.4     	130       	0         	OPEN      	;TMC-372
TMC-373                        	JMC-103                        	JMC-299                        	5.82      	156.4     	130       	0         	OPEN      	;TMC-373
TMC-374_VMC-1                  	JMC-192                        	VMC-643_Up                     	132       	97.8      	130       	0         	OPEN      	;TMC-374
TMC-374_VMC-2                  	VMC-643_Dw                     	JMC-429                        	1.68      	97.8      	130       	0         	OPEN      	;TMC-374
TMC-375                        	JMC-211                        	JMC-287                        	173.88    	97.8      	130       	0         	OPEN      	;TMC-375
TMC-376                        	JMC-227                        	JMC-89                         	86.99     	53.4      	130       	0         	OPEN      	;TMC-376
TMC-377                        	JMC-241                        	JMC-98                         	3.16      	53.4      	130       	0         	OPEN      	;TMC-377
TMC-378                        	JMC-257                        	JMC-115                        	54.4      	108.4     	130       	0         	OPEN      	;TMC-378
TMC-379                        	JMC-260                        	JMC-110                        	6.68      	252       	130       	0         	OPEN      	;TMC-379
TMC-38                         	JMC-282                        	JMC-138                        	119.92    	53.4      	130       	0         	OPEN      	;TMC-38
TMC-381                        	JMC-166                        	JMC-295                        	0.89      	108.4     	130       	0         	OPEN      	;TMC-381
TMC-382                        	JMC-59                         	JMC-296                        	3.75      	108.4     	130       	0         	OPEN      	;TMC-382
TMC-383                        	JMC-101                        	JMC-297                        	3.1       	53.4      	130       	0         	OPEN      	;TMC-383
TMC-384                        	JMC-102                        	JMC-298                        	3.1       	156.4     	130       	0         	OPEN      	;TMC-384
TMC-386                        	VMC-664_Dw                     	JMC-67                         	0.14      	108.4     	130       	0         	OPEN      	;TMC-386
TMC-387                        	JMC-485                        	JMC-61                         	4.76      	53.4      	130       	0         	OPEN      	;TMC-387
TMC-388                        	JMC-110                        	R-48                           	6.68      	252       	130       	0         	OPEN      	;TMC-388
TMC-39                         	JMC-283                        	JMC-137                        	109.93    	53.4      	130       	0         	OPEN      	;TMC-39
TMC-390_SPL1                   	JMC-179                        	JMC-653                        	1.524     	53.4      	130       	0         	OPEN      	;TMC-390
TMC-390_SPL4                   	JMC-654                        	JMC-307                        	2.484     	53.4      	130       	0         	OPEN      	;TMC-390
TMC-40                         	JMC-284                        	JMC-136                        	94.94     	53.4      	130       	0         	OPEN      	;TMC-40
TMC-41                         	JMC-281                        	JMC-193                        	52.39     	53.4      	130       	0         	OPEN      	;TMC-41
TMC-42                         	JMC-33                         	JMC-132                        	103.66    	53.4      	130       	0         	OPEN      	;TMC-42
TMC-43                         	JMC-278                        	JMC-139                        	92        	53.4      	130       	0         	OPEN      	;TMC-43
TMC-44                         	VMC-651_Up                     	JMC-491                        	157.55    	53.4      	130       	0         	OPEN      	;TMC-44
TMC-45                         	JMC-279                        	JMC-32                         	52.68     	53.4      	130       	0         	OPEN      	;TMC-45
TMC-46                         	JMC-191                        	JMC-49                         	8.99      	53.4      	130       	0         	OPEN      	;TMC-46
TMC-47                         	JMC-190                        	JMC-48                         	8.99      	53.4      	130       	0         	OPEN      	;TMC-47
TMC-48                         	JMC-199                        	JMC-50                         	64.73     	53.4      	130       	0         	OPEN      	;TMC-48
TMC-49                         	JMC-51                         	JMC-168                        	60.49     	53.4      	130       	0         	OPEN      	;TMC-49
TMC-50                         	JMC-168                        	JMC-134                        	49.97     	53.4      	130       	0         	OPEN      	;TMC-50
TMC-51                         	JMC-164                        	JMC-276                        	6.99      	53.4      	130       	0         	OPEN      	;TMC-51
TMC-52                         	JMC-29                         	JMC-31                         	4.45      	53.4      	130       	0         	OPEN      	;TMC-52
TMC-53                         	JMC-161                        	JMC-160                        	59.96     	53.4      	130       	0         	OPEN      	;TMC-53
TMC-54                         	JMC-160                        	JMC-164                        	64.98     	53.4      	130       	0         	OPEN      	;TMC-54
TMC-55                         	JMC-20                         	JMC-160                        	129.91    	53.4      	130       	0         	OPEN      	;TMC-55
TMC-56                         	JMC-189                        	JMC-20                         	129.91    	53.4      	130       	0         	OPEN      	;TMC-56
TMC-57                         	JMC-20                         	JMC-188                        	59.96     	53.4      	130       	0         	OPEN      	;TMC-57
TMC-58                         	JMC-31                         	JMC-156                        	31.93     	53.4      	130       	0         	OPEN      	;TMC-58
TMC-59                         	JMC-156                        	JMC-269                        	126.86    	53.4      	130       	0         	OPEN      	;TMC-59
TMC-60                         	VMC-670_Up                     	JMC-19                         	64.96     	53.4      	130       	0         	OPEN      	;TMC-60
TMC-61                         	JMC-184                        	JMC-185                        	132.56    	53.4      	130       	0         	OPEN      	;TMC-61
TMC-62                         	JMC-185                        	JMC-16                         	52.94     	53.4      	130       	0         	OPEN      	;TMC-62
TMC-63                         	JMC-16                         	JMC-159                        	129.96    	53.4      	130       	0         	OPEN      	;TMC-63
TMC-64                         	JMC-159                        	JMC-187                        	129.86    	53.4      	130       	0         	OPEN      	;TMC-64
TMC-647                        	VMC-648_Dw                     	VMC-646_Dw                     	2.976     	108.4     	130       	0         	OPEN      	;TMC-647
TMC-65                         	JMC-22                         	JMC-24                         	75.02     	53.4      	130       	0         	OPEN      	;TMC-65
TMC-655                        	VMC-654_Up                     	VMC-656_Up                     	2.412     	53.4      	130       	0         	OPEN      	;Inserido Hidrosan - N o considerada
TMC-66                         	JMC-187                        	JMC-18                         	64.96     	53.4      	130       	0         	OPEN      	;TMC-66
TMC-67                         	JMC-164                        	JMC-165                        	64.93     	53.4      	130       	0         	OPEN      	;TMC-67
TMC-68                         	JMC-19                         	JMC-164                        	259.82    	53.4      	130       	0         	OPEN      	;TMC-68
TMC-69                         	JMC-19                         	JMC-189                        	64.96     	53.4      	130       	0         	OPEN      	;TMC-69
TMC-698                        	VMC-675_Up                     	JMC-645                        	3.486     	53.4      	140       	0         	OPEN      	;Inserido Novaes Engenharia
TMC-70                         	JMC-188                        	JMC-161                        	129.91    	53.4      	130       	0         	OPEN      	;TMC-70
TMC-701                        	JMC-652                        	JMC-651                        	5.255     	53.4      	140       	0         	OPEN      	;Inserido Novaes Engenharia
TMC-703_VMC-1                  	JMC-644                        	VMC-704_Up                     	4.474     	250       	140       	0         	OPEN      	;Inserido Novaes Engenharia
TMC-703_VMC-2                  	VMC-704_Dw                     	JMC-643                        	4.672     	250       	140       	0         	OPEN      	;Inserido Noves Engenharia
TMC-705_2_FU1B_SPL2            	JMC-670                        	JMC-671                        	145.769   	204.2     	130       	0         	CLOSED    	;Inserido Hidrosan - N o considerada
TMC-705_2_FU1B_SPL4            	JMC-671                        	JMC-15                         	106.237   	204.2     	130       	0         	CLOSED    	;Inserido Hidrosan - N o considerada
TMC-705_SPL1                   	JMC-662                        	JMC-663                        	126.841   	156.4     	130       	0         	CLOSED    	;Inserido Hidrosan - N o considerada
TMC-705_SPL1_Y6L0              	JMC-668                        	JMC-669                        	422.069   	204.2     	130       	0         	CLOSED    	;Inserido Hidrosan - N o considerada
TMC-705_SPL2                   	JMC-663                        	JMC-664                        	120.219   	156.4     	130       	0         	CLOSED    	;Inserido Hidrosan - N o considerada
TMC-705_SPL2_FU1B_SPL1         	JMC-669                        	JMC-670                        	23.557    	204.2     	130       	0         	CLOSED    	;Inserido Hidrosan - N o considerada
TMC-705_SPL4                   	JMC-664                        	JMC-665                        	328.205   	156.4     	130       	0         	CLOSED    	;Inserido Hidrosan - N o considerada
TMC-705_SPL6                   	JMC-665                        	JMC-666                        	125.206   	156.4     	130       	0         	CLOSED    	;Inserido Hidrosan - N o considerada
TMC-705_SPL8                   	JMC-666                        	VMC-654_Up                     	29.041    	156.4     	130       	0         	CLOSED    	;Inserido Hidrosan - N o considerada
TMC-707                        	JMC-668                        	R-47_mod                           	11.181    	204.2     	130       	0         	CLOSED    	;Inserido Hidrosan - N o considerada
TMC-71                         	JMC-161                        	JMC-14                         	210.56    	53.4      	130       	0         	OPEN      	;TMC-71
TMC-72                         	JMC-24                         	JMC-131                        	30.68     	53.4      	130       	0         	OPEN      	;TMC-72
TMC-73                         	JMC-24                         	JMC-161                        	64.96     	53.4      	130       	0         	OPEN      	;TMC-73
TMC-74                         	JMC-23                         	JMC-162                        	63.46     	53.4      	130       	0         	OPEN      	;TMC-74
TMC-75                         	JMC-25                         	JMC-270                        	127.28    	53.4      	130       	0         	OPEN      	;TMC-75
TMC-76                         	JMC-165                        	JMC-18                         	129.91    	53.4      	130       	0         	OPEN      	;TMC-76
TMC-77                         	JMC-18                         	VMC-670_Up                     	129.91    	53.4      	130       	0         	OPEN      	;TMC-77
TMC-78                         	JMC-159                        	JMC-153                        	40.67     	53.4      	130       	0         	OPEN      	;TMC-78
TMC-79                         	JMC-184                        	JMC-274                        	69.34     	53.4      	130       	0         	OPEN      	;TMC-79
TMC-8                          	JMC-147                        	JMC-63                         	59.51     	27.2      	130       	0         	OPEN      	;TMC-8
TMC-80                         	JMC-22                         	JMC-23                         	60.74     	53.4      	130       	0         	OPEN      	;TMC-80
TMC-81                         	JMC-165                        	JMC-159                        	64.96     	53.4      	130       	0         	OPEN      	;TMC-81
TMC-82                         	JMC-22                         	JMC-127                        	53.76     	53.4      	130       	0         	OPEN      	;TMC-82
TMC-83                         	JMC-162                        	JMC-129                        	86.74     	53.4      	130       	0         	OPEN      	;TMC-83
TMC-84                         	JMC-23                         	JMC-128                        	74.55     	53.4      	130       	0         	OPEN      	;TMC-84
TMC-85                         	JMC-160                        	JMC-277                        	7.53      	53.4      	130       	0         	OPEN      	;TMC-85
TMC-86                         	JMC-273                        	JMC-165                        	6.45      	53.4      	130       	0         	OPEN      	;TMC-86
TMC-87                         	JMC-175                        	JMC-54                         	195.38    	53.4      	130       	0         	OPEN      	;TMC-87
TMC-88                         	JMC-208                        	JMC-175                        	112.05    	53.4      	130       	0         	OPEN      	;TMC-88
TMC-89                         	JMC-174                        	JMC-53                         	195.08    	53.4      	130       	0         	OPEN      	;TMC-89
TMC-9                          	JMC-142                        	JMC-133                        	8.58      	53.4      	130       	0         	OPEN      	;TMC-9
TMC-90                         	JMC-173                        	JMC-52                         	195.08    	53.4      	130       	0         	OPEN      	;TMC-90
TMC-91                         	JMC-55                         	JMC-52                         	80.17     	53.4      	130       	0         	OPEN      	;TMC-91
TMC-92                         	JMC-55                         	JMC-56                         	56.13     	53.4      	130       	0         	OPEN      	;TMC-92
TMC-93                         	JMC-172                        	JMC-57                         	336.81    	53.4      	130       	0         	OPEN      	;TMC-93
TMC-94                         	JMC-172                        	JMC-205                        	119.41    	53.4      	130       	0         	OPEN      	;TMC-94
TMC-95                         	JMC-173                        	JMC-206                        	117.07    	53.4      	130       	0         	OPEN      	;TMC-95
TMC-96                         	JMC-171                        	JMC-204                        	118.85    	53.4      	130       	0         	OPEN      	;TMC-96
TMC-97                         	JMC-209                        	JMC-170                        	346.93    	53.4      	130       	0         	OPEN      	;TMC-97
TMC-98                         	JMC-170                        	JMC-203                        	117.18    	53.4      	130       	0         	OPEN      	;TMC-98
TMC-99                         	JMC-144                        	JMC-54                         	43.94     	53.4      	130       	0         	OPEN      	;TMC-99

[VALVES]
;ID                             	Node1                          	Node2                          	Diameter  	Type      	Setting   	MinorLoss                      
N                              	VMC-705_Up                     	VMC-705_Dw                     	110       	TCV       	0         	0                              	;Inserido Hidrosan (fechado) - N o considerada
VMC-639                        	VMC-639_Up                     	VMC-640_Up                     	125       	TCV       	0         	0                              	;
VMC-640                        	VMC-640_Up                     	VMC-640_Dw                     	125       	TCV       	0         	0                              	;
VMC-641                        	VMC-641_Up                     	VMC-641_Dw                     	150       	TCV       	0         	0                              	;
VMC-642                        	VMC-642_Up                     	VMC-642_Dw                     	150       	TCV       	0         	0                              	;
VMC-643                        	VMC-643_Up                     	VMC-643_Dw                     	100       	TCV       	0         	0                              	;
VMC-644                        	VMC-644_Up                     	VMC-644_Dw                     	100       	TCV       	0         	0                              	;
VMC-645                        	VMC-645_Up                     	VMC-645_Dw                     	125       	TCV       	0         	0                              	;
VMC-648                        	VMC-648_Up                     	VMC-648_Dw                     	100       	TCV       	0         	0                              	;
VMC-649                        	VMC-649_Up                     	VMC-649_Dw                     	50        	TCV       	0         	0                              	;
VMC-650                        	VMC-650_Up                     	VMC-650_Dw                     	150       	TCV       	0         	0                              	;
VMC-651                        	VMC-651_Up                     	VMC-651_Dw                     	50        	TCV       	0         	0                              	;
VMC-652                        	VMC-652_Up                     	VMC-652_Dw                     	50        	TCV       	0         	0                              	;
VMC-653                        	VMC-653_Up                     	VMC-653_Dw                     	100       	TCV       	0         	0                              	;
VMC-656                        	VMC-656_Up                     	VMC-656_Dw                     	100       	TCV       	0         	0                              	;
VMC-657                        	VMC-657_Up                     	VMC-657_Dw                     	250       	TCV       	0         	0                              	;
VMC-658                        	VMC-658_Up                     	VMC-658_Dw                     	50        	TCV       	0         	0                              	;
VMC-659                        	VMC-659_Up                     	VMC-659_Dw                     	50        	TCV       	0         	0                              	;
VMC-660                        	VMC-660_Up                     	VMC-660_Dw                     	150       	TCV       	0         	0                              	;
VMC-661                        	VMC-661_Up                     	VMC-661_Dw                     	250       	TCV       	0         	0                              	;
VMC-662                        	VMC-662_Up                     	VMC-662_Dw                     	50        	TCV       	0         	0                              	;
VMC-663                        	VMC-663_Up                     	VMC-663_Dw                     	50        	TCV       	0         	0                              	;
VMC-664                        	VMC-664_Up                     	VMC-664_Dw                     	100       	TCV       	0         	0                              	;
VMC-665                        	VMC-665_Up                     	VMC-665_Dw                     	150       	TCV       	0         	0                              	;
VMC-666                        	VMC-666_Up                     	VMC-666_Dw                     	50        	TCV       	0         	0                              	;
VMC-667                        	VMC-667_Up                     	VMC-667_Dw                     	50        	TCV       	0         	0                              	;
VMC-668                        	VMC-668_Up                     	VMC-668_Dw                     	50        	TCV       	0         	0                              	;
VMC-669                        	VMC-669_Up                     	VMC-669_Dw                     	50        	TCV       	0         	0                              	;
VMC-670                        	VMC-670_Up                     	VMC-670_Dw                     	50        	TCV       	0         	0                              	;
VMC-671                        	VMC-671_Up                     	VMC-671_Dw                     	50        	TCV       	0         	0                              	;
VMC-672                        	VMC-672_Up                     	VMC-672_Dw                     	50        	TCV       	0         	0                              	;
VMC-673                        	VMC-673_Up                     	VMC-673_Dw                     	50        	TCV       	0         	0                              	;
VMC-674                        	VMC-674_Up                     	VMC-674_Dw                     	50        	TCV       	0         	0                              	;
VMC-675                        	VMC-675_Up                     	VMC-675_Dw                     	50        	TCV       	0         	0                              	;
VMC-696                        	VMC-696_Up                     	VMC-696_Dw                     	250       	TCV       	0         	0                              	;Inserido Novaes Engenharia
VMC-704                        	VMC-704_Up                     	VMC-704_Dw                     	100       	PRV       	25        	0                              	;Inserido Novaes Engenharia
VMC-706                        	VMC-706_Up                     	VMC-706_Dw                     	100       	TCV       	0         	0                              	;Inserido Hidrosan (fechado) - N o considerada

[VERTICES]
;Link                           	X-Coord             	Y-Coord             
TMC-153                        	796648.471975547    	7593162.100894      
TMC-154                        	796667.120445533    	7593221.05037436    
TMC-156                        	796687.561778247    	7593340.75982513    
TMC-157                        	796688.490945573    	7593394.0628392     
TMC-158                        	796679.766040637    	7593450.18833648    
TMC-159                        	796744.858119948    	7593451.02164879    
TMC-159                        	796748.245112326    	7593408.29719605    
TMC-159                        	796748.861883132    	7593365.44313939    
TMC-163                        	796363.545653271    	7593372.98014911    
TMC-163                        	796357.303979377    	7593368.83592288    
TMC-163                        	796350.810463669    	7593365.09863004    
TMC-163                        	796344.091599229    	7593361.78351849    
TMC-163                        	796337.174798549    	7593358.90411363    
TMC-163                        	796330.088281683    	7593356.47216323    
TMC-165                        	796496.118362112    	7593448.74034992    
TMC-165                        	796469.887966041    	7593441.26909529    
TMC-166                        	796435.427109945    	7593428.1026717     
TMC-167                        	796418.253172666    	7593418.04081145    
TMC-245_SPL1                   	796627.184849443    	7593080.26932584    
TMC-245_SPL2                   	796625.698932264    	7593087.79489679    
TMC-247                        	796702.008689557    	7593128.75469009    
TMC-247                        	796715.505446578    	7593166.33797303    
TMC-247                        	796726.75883703     	7593204.65281101    
TMC-247                        	796735.729569055    	7593243.56542558    
TMC-247                        	796742.386320828    	7593282.93995113    
TMC-251                        	795761.408676155    	7592599.96872656    
TMC-255_SPL2                   	795667.711139821    	7592385.82621749    
TMC-297_VMC-2_SPL2             	795413.54621971     	7592602.46984209    
TMC-300                        	796630.257855832    	7593356.29029229    
TMC-301_SPL1                   	796657.684544515    	7593086.2537289     
TMC-301_SPL2                   	796650.123194305    	7593084.71252252    
TMC-301_SPL2                   	796627.247378209    	7593080.10576508    
TMC-301_SPL4_6ZYH              	796503.502972267    	7593055.18597818    
TMC-307                        	795413.377639995    	7592604.89939573    
TMC-310_SPL4                   	795833.951859269    	7592681.07490407    
TMC-310_SPL4                   	796046.433874641    	7592721.61193148    
TMC-310_SPL4                   	796048.328447841    	7592727.48127852    
TMC-310_SPL4                   	796002.15297594     	7592942.27620864    
TMC-313                        	796318.959574266    	7592999.40271726    
TMC-313                        	796319.201700335    	7593016.83502897    
TMC-316                        	796215.75276652     	7592971.30885717    
TMC-318                        	796310.534322634    	7592938.7216057     
TMC-329                        	796230.573848545    	7592667.61738772    
TMC-329                        	796230.331542739    	7592667.0777066     
TMC-329                        	796229.859531777    	7592665.18474453    
TMC-329                        	796229.493675618    	7592663.26843322    
TMC-331                        	796216.115872767    	7593000.83718826    
TMC-332_VMC-2                  	795655.50616547     	7592426.44048353    
TMC-340                        	796248.302979621    	7592868.43439044    
TMC-340                        	796308.976401253    	7592877.95716332    
TMC-349                        	796450.553640123    	7593318.60094577    
TMC-358_SPL4                   	796503.430366949    	7593055.44901879    
TMC-359                        	795748.114489318    	7592667.40295531    
TMC-361                        	796648.329784557    	7593076.33113167    
TMC-361                        	796648.336936351    	7593076.33108759    
TMC-361                        	796651.666502069    	7593076.98912826    
TMC-369_SPL2                   	796316.881921793    	7593020.62414326    
TMC-390_SPL4                   	796440.167516041    	7593043.45654591    
TMC-390_SPL4                   	796440.37576012     	7593042.83672785    
TMC-698                        	796201.545345841    	7592399.03525425    
TMC-703_VMC-1                  	795767.921528232    	7592671.58924223    
TMC-703_VMC-2                  	795763.574467674    	7592670.96053513    
TMC-705_2_FU1B_SPL2            	795631.5531616      	7592432.27003403    
TMC-705_2_FU1B_SPL4            	795486.022032197    	7592440.59267682    
TMC-705_SPL2                   	796388.638511234    	7592786.54531909    
TMC-705_SPL2_FU1B_SPL1         	795648.221953011    	7592448.91527911    
TMC-705_SPL4                   	796501.992278957    	7592746.49979754    
TMC-705_SPL6                   	796445.421957735    	7592423.20759558    
TMC-705_SPL8                   	796321.841492729    	7592403.09546376    

[BACKDROP]
OFFSET 0	0

[OPTIONS]
UNITS 	LPS
HEADLOSS 	H-W
QUALITY 	NONE
SPECIFIC GRAVITY 	1
UNBALANCED CONTINUE 1
PATTERN 	FIR01-73

[REACTIONS]
ORDER BULK	1
ORDER TANK	1
ORDER WALL	1
GLOBAL BULK	0
GLOBAL WALL	0
LIMITING POTENTIAL	0
ROUGHNESS CORRELATION	0

[STATUS]
N	OPEN
VMC-640	OPEN
VMC-641	OPEN
VMC-642	OPEN
VMC-643	OPEN
VMC-644	OPEN
VMC-645	OPEN
VMC-648	OPEN
VMC-649	CLOSED
VMC-650	OPEN
VMC-651	OPEN
VMC-652	OPEN
VMC-653	OPEN
VMC-656	OPEN
VMC-657	OPEN
VMC-658	CLOSED
VMC-659	OPEN
VMC-660	CLOSED
VMC-661	OPEN
VMC-662	CLOSED
VMC-663	OPEN
VMC-664	OPEN
VMC-665	OPEN
VMC-666	OPEN
VMC-667	OPEN
VMC-668	OPEN
VMC-669	OPEN
VMC-670	OPEN
VMC-671	OPEN
VMC-672	OPEN
VMC-673	OPEN
VMC-674	OPEN
VMC-675	OPEN
VMC-696	CLOSED
VMC-706	OPEN

[ENERGY]
GLOBAL PRICE	0
GLOBAL EFFICIENCY	0.75
DEMAND CHARGE	0

[TIMES]
DURATION 	24:00
HYDRAULIC TIMESTEP 	01:00
QUALITY TIMESTEP 	00:00
RULE TIMESTEP 	01:00
PATTERN TIMESTEP 	01:00
PATTERN START 	00:00
REPORT TIMESTEP 	01:00
REPORT START 	00:00
START CLOCKTIME 	12:00 AM
STATISTIC 	NONE

[REPORT]
PAGE	0
STATUS	NO
SUMMARY	YES
ENERGY	NO
