[TITLE]
prueba

[JUNCTIONS]
;ID              	Elev        	Demand      	Pattern         
 n1              	703.99      	0.024       	1               	;
 n10             	710.913     	0.004       	1               	;
 n100            	700.76      	0.095       	1               	;
 n101            	689.326     	0           	1               	;
 n102            	712.496     	1.124       	1               	;
 n103            	712.49      	0.044       	1               	;
 n104            	710.52      	0.008       	1               	;
 n105            	711.007     	0.004       	1               	;
 n106            	711.991     	0.01        	1               	;
 n107            	704.983     	0           	1               	;
 n108            	716.674     	0           	1               	;
 n109            	722.513     	0.014       	1               	;
 n11             	710.573     	0.003       	1               	;
 n110            	722.324     	0.035       	1               	;
 n111            	704.431     	0.027       	1               	;
 n112            	704.846     	0.007       	1               	;
 n113            	709.393     	0.04        	1               	;
 n114            	715.938     	0           	1               	;
 n115            	712.588     	0           	1               	;
 n116            	712.339     	0           	1               	;
 n117            	716.158     	0           	1               	;
 n118            	716.177     	0           	1               	;
 n119            	716.257     	0           	1               	;
 n12             	724.21      	0           	1               	;
 n120            	708.063     	0           	1               	;
 n121            	707.795     	0.011       	1               	;
 n122            	712.316     	0           	1               	;
 n123            	708.389     	0.003       	1               	;
 n124            	718.265     	0           	1               	;
 n125            	716.539     	0           	1               	;
 n126            	713.558     	0           	1               	;
 n127            	713.15      	0.016       	1               	;
 n128            	717.743     	0.024       	1               	;
 n129            	716.238     	0.008       	1               	;
 n13             	724.107     	0           	1               	;
 n130            	704.875     	0.049       	1               	;
 n131            	709.835     	0.008       	1               	;
 n132            	709.727     	0           	1               	;
 n133            	709.741     	0           	1               	;
 n134            	713.13      	0.012       	1               	;
 n135            	703.361     	0.008       	1               	;
 n136            	703.178     	0           	1               	;
 n137            	703.344     	0           	1               	;
 n138            	697.975     	0.002       	1               	;
 n139            	697.937     	0           	1               	;
 n14             	710.82      	0.051       	1               	;
 n140            	697.79      	0           	1               	;
 n141            	704.862     	0           	1               	;
 n142            	718.176     	0.005       	1               	;
 n143            	708.437     	0.026       	1               	;
 n144            	720.653     	0           	1               	;
 n145            	720.333     	0.007       	1               	;
 n146            	720.087     	0           	1               	;
 n147            	717.657     	0.039       	1               	;
 n148            	708.845     	0           	1               	;
 n149            	717.775     	0.012       	1               	;
 n15             	716.268     	0           	1               	;
 n150            	718.268     	0.008       	1               	;
 n151            	712.303     	0.008       	1               	;
 n153            	708.728     	0           	1               	;
 n154            	708.346     	0.003       	1               	;
 n156            	723.108     	0           	1               	;
 n157            	710.969     	0.017       	1               	;
 n158            	710.766     	0.071       	1               	;
 n159            	714.63      	0           	1               	;
 n16             	716.06      	0           	1               	;
 n160            	714.493     	0.011       	1               	;
 n161            	711.717     	0           	1               	;
 n162            	711.607     	0.003       	1               	;
 n163            	711.837     	0.024       	1               	;
 n164            	709.019     	0.017       	1               	;
 n165            	709.882     	0           	1               	;
 n166            	721.752     	0.053       	1               	;
 n167            	721.992     	0.005       	1               	;
 n168            	720.662     	0.005       	1               	;
 n169            	721.003     	0.017       	1               	;
 n17             	714.435     	0.018       	1               	;
 n170            	720.776     	0.003       	1               	;
 n171            	719.942     	0.017       	1               	;
 n172            	704.699     	0           	1               	;
 n173            	705.072     	0           	1               	;
 n174            	703.35      	0           	1               	;
 n175            	699.231     	0           	1               	;
 n176            	699.554     	0.041       	1               	;
 n177            	701.489     	0.013       	1               	;
 n178            	701.192     	0           	1               	;
 n179            	703.451     	0           	1               	;
 n18             	714.656     	0.014       	1               	;
 n180            	703.771     	0.026       	1               	;
 n181            	705.529     	0.012       	1               	;
 n182            	705.273     	0           	1               	;
 n183            	707.676     	0.009       	1               	;
 n184            	707.4       	0           	1               	;
 n185            	708.258     	0.026       	1               	;
 n186            	710.672     	0.016       	1               	;
 n187            	698.604     	0           	1               	;
 n188            	696.748     	0           	1               	;
 n189            	701.457     	0.007       	1               	;
 n19             	712.523     	0.012       	1               	;
 n190            	704.029     	0           	1               	;
 n191            	705.963     	0.025       	1               	;
 n192            	714.603     	0.014       	1               	;
 n193            	710.003     	0.076       	1               	;
 n194            	722.095     	0           	1               	;
 n195            	705.96      	0.03        	1               	;
 n196            	706.724     	0.024       	1               	;
 n198            	710.733     	0.018       	1               	;
 n2              	702.43      	0.125       	1               	;
 n20             	712.719     	0.012       	1               	;
 n200            	724.087     	0           	1               	;
 n201            	723.812     	0           	1               	;
 n202            	712.605     	0           	1               	;
 n203            	713.162     	0           	1               	;
 n204            	704.035     	0           	1               	;
 n205            	710.011     	0.091       	1               	;
 n206            	706.085     	0.098       	1               	;
 n207            	724.95      	0           	1               	;
 n208            	716.087     	0.002       	1               	;
 n209            	722.419     	0           	1               	;
 n21             	716.36      	0           	1               	;
 n210            	722.671     	0           	1               	;
 n211            	722.684     	0.013       	1               	;
 n212            	695.01      	0.103       	1               	;
 n213            	694.996     	0.06        	1               	;
 n214            	693.988     	0           	1               	;
 n215            	694.683     	0           	1               	;
 n216            	694.669     	0           	1               	;
 n217            	705.02      	0.031       	1               	;
 n218            	707.973     	0           	1               	;
 n219            	715.785     	0           	1               	;
 n220            	703.473     	0.019       	1               	;
 n221            	704.993     	0.032       	1               	;
 n222            	708.672     	0           	1               	;
 n223            	707.994     	0           	1               	;
 n224            	707.73      	0           	1               	;
 n225            	712.675     	0.035       	1               	;
 n226            	700.977     	0           	1               	;
 n227            	699.991     	0.039       	1               	;
 n228            	691.851     	0           	1               	;
 n229            	693.094     	0.04        	1               	;
 n23             	710.552     	0           	1               	;
 n230            	684.777     	0           	1               	;
 n231            	684.805     	0           	1               	;
 n232            	684.816     	0.068       	1               	;
 n233            	686.148     	0.056       	1               	;
 n234            	687.39      	0.025       	1               	;
 n235            	684.011     	0.026       	1               	;
 n236            	685.099     	0.068       	1               	;
 n237            	681.633     	0.024       	1               	;
 n238            	682.583     	0.037       	1               	;
 n239            	694.335     	0.167       	1               	;
 n24             	710.316     	0.02        	1               	;
 n240            	693.988     	0.082       	1               	;
 n241            	695.588     	0.067       	1               	;
 n242            	696.543     	0.056       	1               	;
 n243            	698.166     	0.034       	1               	;
 n244            	690.666     	0.145       	1               	;
 n245            	691.481     	0.075       	1               	;
 n246            	691.781     	0           	1               	;
 n247            	689.477     	0.135       	1               	;
 n248            	688.065     	0.105       	1               	;
 n249            	686.504     	0.093       	1               	;
 n25             	710.287     	0           	1               	;
 n250            	685.736     	0.059       	1               	;
 n251            	695.707     	0.13        	1               	;
 n252            	698.114     	0.083       	1               	;
 n253            	694.051     	0.218       	1               	;
 n254            	695.144     	0.113       	1               	;
 n255            	696.349     	0.03        	1               	;
 n256            	697.26      	0.065       	1               	;
 n257            	694.818     	0.098       	1               	;
 n258            	700.329     	0.058       	1               	;
 n259            	699.997     	0.042       	1               	;
 n26             	710.522     	0           	1               	;
 n260            	700.292     	0.02        	1               	;
 n261            	698.424     	0.025       	1               	;
 n262            	694.619     	0.063       	1               	;
 n263            	696.83      	0.051       	1               	;
 n264            	696.991     	0.149       	1               	;
 n265            	702.579     	0.044       	1               	;
 n266            	703.762     	0.047       	1               	;
 n267            	705.248     	0.043       	1               	;
 n268            	700.977     	0.067       	1               	;
 n269            	701.759     	0.122       	1               	;
 n27             	713.004     	0.044       	1               	;
 n270            	693.613     	0.09        	1               	;
 n271            	698.244     	0.021       	1               	;
 n272            	699.006     	0.094       	1               	;
 n273            	683.276     	0.049       	1               	;
 n274            	689.605     	0.198       	1               	;
 n275            	702.612     	0.033       	1               	;
 n276            	698.711     	0.011       	1               	;
 n277            	697.611     	0.162       	1               	;
 n278            	699.409     	0.121       	1               	;
 n279            	702.96      	0.112       	1               	;
 n28             	709.786     	0           	1               	;
 n280            	693.048     	0.06        	1               	;
 n281            	685.948     	0.029       	1               	;
 n282            	684.882     	0.065       	1               	;
 n283            	695.868     	0.076       	1               	;
 n284            	688.551     	0.048       	1               	;
 n285            	697.235     	0.101       	1               	;
 n286            	696.233     	0.087       	1               	;
 n287            	702.467     	0.06        	1               	;
 n288            	700.978     	0.041       	1               	;
 n289            	691.965     	0.131       	1               	;
 n29             	704.759     	0           	1               	;
 n290            	700.396     	0           	1               	;
 n291            	695.993     	0.109       	1               	;
 n292            	700.633     	0.025       	1               	;
 n293            	699.512     	0.112       	1               	;
 n294            	697.962     	0.193       	1               	;
 n295            	696.953     	0.149       	1               	;
 n296            	696.04      	0.087       	1               	;
 n297            	700.99      	0           	1               	;
 n298            	700.723     	0.056       	1               	;
 n299            	700.284     	0.077       	1               	;
 n3              	700.67      	0.08        	1               	;
 n30             	703.965     	0           	1               	;
 n300            	700.611     	0           	1               	;
 n301            	703.591     	0.015       	1               	;
 n302            	702.763     	0.039       	1               	;
 n303            	708.615     	0.073       	1               	;
 n304            	708.687     	0.12        	1               	;
 n305            	703.674     	0.02        	1               	;
 n306            	704.99      	0.125       	1               	;
 n307            	703.722     	0.143       	1               	;
 n308            	705.009     	0.089       	1               	;
 n309            	699.311     	0.047       	1               	;
 n31             	704.914     	0           	1               	;
 n310            	698.712     	0.041       	1               	;
 n311            	695.957     	0.068       	1               	;
 n312            	696.987     	0.079       	1               	;
 n313            	696.799     	0.072       	1               	;
 n314            	697.532     	0.059       	1               	;
 n315            	697.997     	0.061       	1               	;
 n316            	697.803     	0.118       	1               	;
 n317            	701.6       	0.075       	1               	;
 n318            	688.049     	0.055       	1               	;
 n319            	702.992     	0.044       	1               	;
 n32             	704.911     	0           	1               	;
 n320            	704.827     	0.091       	1               	;
 n321            	702.75      	0           	1               	;
 n322            	701.902     	0.037       	1               	;
 n323            	686.533     	0.106       	1               	;
 n324            	684.736     	0.047       	1               	;
 n325            	684.761     	0           	1               	;
 n326            	696         	0.03        	1               	;
 n327            	712.114     	0           	1               	;
 n328            	707.721     	0.027       	1               	;
 n329            	707.755     	0.027       	1               	;
 n33             	703.993     	0.036       	1               	;
 n330            	708.561     	0.132       	1               	;
 n331            	708.467     	0.093       	1               	;
 n332            	708.535     	0           	1               	;
 n333            	707.994     	0.063       	1               	;
 n334            	700.548     	0.023       	1               	;
 n335            	700.415     	0           	1               	;
 n336            	706.144     	0.017       	1               	;
 n337            	702.387     	0.023       	1               	;
 n338            	699.356     	0.043       	1               	;
 n339            	701.297     	0.309       	1               	;
 n34             	718.953     	0           	1               	;
 n340            	699.002     	0           	1               	;
 n341            	696.052     	0           	1               	;
 n342            	702.982     	0           	1               	;
 n343            	694.485     	0           	1               	;
 n344            	694.726     	0.007       	1               	;
 n345            	696.007     	0.009       	1               	;
 n346            	703.423     	0           	1               	;
 n347            	703.592     	0           	1               	;
 n348            	701.728     	0           	1               	;
 n349            	702.523     	0           	1               	;
 n350            	698         	0           	1               	;
 n351            	702.979     	0           	1               	;
 n352            	700.993     	0.073       	1               	;
 n353            	701.254     	0.053       	1               	;
 n354            	700.973     	0.071       	1               	;
 n355            	700.438     	0.04        	1               	;
 n356            	702.539     	0           	1               	;
 n357            	699.09      	0.038       	1               	;
 n358            	701.982     	0.044       	1               	;
 n359            	697.478     	0.075       	1               	;
 n36             	712.894     	0.038       	1               	;
 n360            	700.492     	0           	1               	;
 n361            	703.426     	0.039       	1               	;
 n362            	701.982     	0.029       	1               	;
 n363            	704.982     	0.063       	1               	;
 n364            	705.828     	0.101       	1               	;
 n365            	705.803     	0.051       	1               	;
 n366            	705.813     	0.047       	1               	;
 n367            	705.465     	0           	1               	;
 n368            	710.158     	0           	1               	;
 n369            	724.88      	0           	1               	;
 n37             	723.331     	0           	1               	;
 n38             	723.909     	0           	1               	;
 n39             	712.4       	0           	1               	;
 n4              	698.708     	0.02        	1               	;
 n40             	724.086     	0           	1               	;
 n41             	707.979     	0           	1               	;
 n42             	707.646     	0.095       	1               	;
 n43             	723.985     	0           	1               	;
 n44             	724.106     	0           	1               	;
 n45             	723.991     	0           	1               	;
 n46             	723.888     	0           	1               	;
 n47             	716.092     	0           	1               	;
 n48             	716.153     	0           	1               	;
 n49             	697.494     	0           	1               	;
 n5              	700.23      	0           	1               	;
 n50             	696.981     	0           	1               	;
 n51             	712.6       	0.004       	1               	;
 n52             	712.807     	0           	1               	;
 n53             	718.609     	0.007       	1               	;
 n54             	717.119     	0.03        	1               	;
 n55             	715.033     	0.025       	1               	;
 n56             	718.466     	0           	1               	;
 n57             	718.061     	0           	1               	;
 n58             	708.697     	0           	1               	;
 n59             	708.823     	0           	1               	;
 n6              	680.208     	0.013       	1               	;
 n60             	704.839     	0           	1               	;
 n61             	704.849     	0           	1               	;
 n62             	711.539     	0.084       	1               	;
 n63             	711.679     	0           	1               	;
 n64             	711.692     	0           	1               	;
 n65             	711.525     	0           	1               	;
 n66             	710.046     	0           	1               	;
 n67             	710.106     	0           	1               	;
 n68             	710.014     	0           	1               	;
 n69             	710.025     	0           	1               	;
 n7              	680.208     	0           	1               	;
 n70             	703.756     	0           	1               	;
 n71             	703.987     	0.074       	1               	;
 n72             	703.607     	0.027       	1               	;
 n73             	703.566     	0           	1               	;
 n74             	705.004     	0           	1               	;
 n75             	705.004     	0.005       	1               	;
 n76             	705.008     	0.025       	1               	;
 n77             	705.008     	0           	1               	;
 n78             	695         	0           	1               	;
 n79             	695         	0           	1               	;
 n8              	719.062     	0.003       	1               	;
 n80             	693.994     	0.006       	1               	;
 n81             	720.212     	0.006       	1               	;
 n82             	720.183     	0.011       	1               	;
 n83             	720.124     	0           	1               	;
 n84             	720.333     	0.005       	1               	;
 n85             	720.284     	0           	1               	;
 n86             	720.54      	0.008       	1               	;
 n87             	720.457     	0.007       	1               	;
 n88             	702.903     	0           	1               	;
 n89             	703.056     	0           	1               	;
 n9              	716.488     	0.011       	1               	;
 n90             	689.333     	0.201       	1               	;
 n91             	689.318     	0.292       	1               	;
 n92             	707.622     	0.009       	1               	;
 n93             	716.313     	0           	1               	;
 n94             	716.372     	0           	1               	;
 n95             	713.17      	0           	1               	;
 n96             	712.973     	0.002       	1               	;
 n97             	718.174     	0           	1               	;
 n98             	709.938     	0.025       	1               	;
 n99             	700.753     	0.111       	1               	;

[RESERVOIRS]
;ID              	Head        	Pattern         
 3               	650         	                	;

[TANKS]
;ID              	Elevation   	InitLevel   	MinLevel    	MaxLevel    	Diameter    	MinVol      	VolCurve        	Overflow
 2               	724         	8           	5           	10          	8           	0           	                	;

[PIPES]
;ID              	Node1           	Node2           	Length      	Diameter    	Roughness   	MinorLoss   	Status
 p1              	n1              	n2              	68.36       	100         	0.03        	0           	OPEN  	;
 p10             	n15             	n16             	5.062       	60          	0.0015      	0           	OPEN  	;
 p100            	n142            	n56             	7.85        	60          	0.0015      	0           	OPEN  	;
 p101            	n142            	n143            	200         	60          	0.0015      	0           	OPEN  	;
 p102            	n144            	n145            	9.887       	60          	0.0015      	0           	OPEN  	;
 p103            	n56             	n146            	34.75       	60          	0.0015      	0           	OPEN  	;
 p104            	n147            	n57             	8.284       	60          	0.0015      	0           	OPEN  	;
 p105            	n148            	n149            	183.4       	60          	0.0015      	0           	OPEN  	;
 p106            	n149            	n147            	3.164       	60          	0.0015      	0           	OPEN  	;
 p107            	n15             	n150            	56.48       	60          	0.0015      	0           	OPEN  	;
 p108            	n151            	n16             	118.9       	60          	0.0015      	0           	OPEN  	;
 p109            	n153            	n154            	7.854       	60          	0.0015      	0           	OPEN  	;
 p11             	n17             	n18             	5.063       	150         	0.03        	0           	OPEN  	;
 p110            	n25             	n154            	50.96       	60          	0.0015      	0           	OPEN  	;
 p111            	n23             	n150            	205.4       	60          	0.0015      	0           	OPEN  	;
 p112            	n53             	n156            	126.3       	60          	0.0015      	0           	OPEN  	;
 p113            	n8              	n13             	154.5       	60          	0.0015      	0           	OPEN  	;
 p114            	n9              	n51             	122.4       	60          	0.0015      	0           	OPEN  	;
 p115            	n157            	n158            	4.783       	60          	0.0015      	0           	OPEN  	;
 p116            	n159            	n160            	3.872       	60          	0.0015      	0           	OPEN  	;
 p117            	n161            	n162            	4.006       	60          	0.0015      	0           	OPEN  	;
 p118            	n163            	n161            	3.958       	60          	0.0015      	0           	OPEN  	;
 p119            	n164            	n133            	17.64       	60          	0.0015      	0           	OPEN  	;
 p12             	n19             	n20             	5.062       	60          	0.0015      	0           	OPEN  	;
 p120            	n132            	n165            	5.858       	60          	0.0015      	0           	OPEN  	;
 p121            	n166            	n167            	4.723       	60          	0.0015      	0           	OPEN  	;
 p122            	n168            	n169            	8.4         	60          	0.0015      	0           	OPEN  	;
 p123            	n144            	n86             	7.907       	60          	0.0015      	0           	OPEN  	;
 p124            	n170            	n145            	22.26       	60          	0.0015      	0           	OPEN  	;
 p125            	n84             	n146            	7.177       	60          	0.0015      	0           	OPEN  	;
 p126            	n81             	n171            	7.347       	60          	0.0015      	0           	OPEN  	;
 p127            	n172            	n173            	7.711       	60          	0.0015      	0           	OPEN  	;
 p128            	n88             	n174            	7.835       	60          	0.0015      	0           	OPEN  	;
 p129            	n175            	n176            	6.733       	60          	0.0015      	0           	OPEN  	;
 p13             	n21             	n16             	7.849       	150         	0.03        	0           	OPEN  	;
 p130            	n177            	n178            	6.305       	60          	0.0015      	0           	OPEN  	;
 p131            	n179            	n180            	6.527       	60          	0.0015      	0           	OPEN  	;
 p132            	n181            	n182            	6.247       	60          	0.0015      	0           	OPEN  	;
 p133            	n183            	n184            	7.267       	60          	0.0015      	0           	OPEN  	;
 p134            	n185            	n186            	54.08       	60          	0.0015      	0           	OPEN  	;
 p135            	n162            	n165            	43.8        	60          	0.0015      	0           	OPEN  	;
 p136            	n124            	n128            	32.37       	60          	0.0015      	0           	OPEN  	;
 p137            	n151            	n157            	42.14       	60          	0.0015      	0           	OPEN  	;
 p138            	n187            	n188            	39.96       	60          	0.0015      	0           	OPEN  	;
 p139            	n189            	n140            	103.7       	60          	0.0015      	0           	OPEN  	;
 p14             	n16             	n17             	46.22       	150         	0.03        	0           	OPEN  	;
 p140            	n140            	n188            	21.79       	60          	0.0015      	0           	OPEN  	;
 p141            	n136            	n190            	35.18       	60          	0.0015      	0           	OPEN  	;
 p142            	n191            	n121            	59.8        	60          	0.0015      	0           	OPEN  	;
 p143            	n191            	n30             	53.05       	60          	0.0015      	0           	OPEN  	;
 p144            	n163            	n127            	33.54       	60          	0.0015      	0           	OPEN  	;
 p145            	n161            	n160            	81.1        	60          	0.0015      	0           	OPEN  	;
 p146            	n161            	n191            	217.7       	60          	0.0015      	0           	OPEN  	;
 p147            	n132            	n29             	186.4       	60          	0.0015      	0           	OPEN  	;
 p148            	n187            	n175            	18.5        	60          	0.0015      	0           	OPEN  	;
 p149            	n178            	n175            	54.87       	60          	0.0015      	0           	OPEN  	;
 p15             	n19             	n17             	54.06       	150         	0.03        	0           	OPEN  	;
 p150            	n179            	n178            	54.76       	60          	0.0015      	0           	OPEN  	;
 p151            	n182            	n179            	54.87       	60          	0.0015      	0           	OPEN  	;
 p152            	n184            	n182            	54.68       	60          	0.0015      	0           	OPEN  	;
 p153            	n164            	n184            	52.74       	60          	0.0015      	0           	OPEN  	;
 p154            	n192            	n83             	87.23       	60          	0.0015      	0           	OPEN  	;
 p155            	n193            	n192            	70.8        	60          	0.0015      	0           	OPEN  	;
 p156            	n83             	n194            	61.84       	60          	0.0015      	0           	OPEN  	;
 p157            	n15             	n18             	46.22       	60          	0.0015      	0           	OPEN  	;
 p158            	n20             	n18             	54.07       	60          	0.0015      	0           	OPEN  	;
 p159            	n20             	n186            	54.07       	60          	0.0015      	0           	OPEN  	;
 p16             	n19             	n10             	43.63       	150         	0.03        	0           	OPEN  	;
 p160            	n195            	n185            	54.08       	60          	0.0015      	0           	OPEN  	;
 p161            	n174            	n195            	65.41       	60          	0.0015      	0           	OPEN  	;
 p162            	n153            	n143            	7.85        	60          	0.0015      	0           	OPEN  	;
 p163            	n143            	n196            	46.22       	60          	0.0015      	0           	OPEN  	;
 p164            	n173            	n196            	44.54       	60          	0.0015      	0           	OPEN  	;
 p165            	n196            	n171            	244         	60          	0.0015      	0           	OPEN  	;
 p166            	n195            	n176            	176         	60          	0.0015      	0           	OPEN  	;
 p167            	n185            	n177            	185.8       	60          	0.0015      	0           	OPEN  	;
 p168            	n24             	n185            	53.12       	60          	0.0015      	0           	OPEN  	;
 p169            	n198            	n26             	4.811       	60          	0.0015      	0           	OPEN  	;
 p17             	n23             	n24             	4.378       	60          	0.0015      	0           	OPEN  	;
 p170            	n145            	n198            	220.1       	60          	0.0015      	0           	OPEN  	;
 p171            	n186            	n180            	194.8       	60          	0.0015      	0           	OPEN  	;
 p172            	n27             	n168            	198.6       	60          	0.0015      	0           	OPEN  	;
 p173            	n19             	n181            	199.2       	60          	0.0015      	0           	OPEN  	;
 p174            	n55             	n166            	176         	60          	0.0015      	0           	OPEN  	;
 p175            	n183            	n158            	95.16       	60          	0.0015      	0           	OPEN  	;
 p176            	n158            	n17             	112.4       	60          	0.0015      	0           	OPEN  	;
 p177            	n110            	n54             	141.8       	60          	0.0015      	0           	OPEN  	;
 p178            	n200            	n45             	2.878       	250         	0.03        	0           	OPEN  	;
 p179            	n201            	n46             	2.731       	250         	0.03        	0           	OPEN  	;
 p18             	n25             	n26             	4.35        	60          	0.0015      	0           	OPEN  	;
 p180            	n201            	n202            	334.6       	250         	0.03        	0           	OPEN  	;
 p181            	n203            	n202            	17.44       	250         	0.03        	0           	OPEN  	;
 p182            	n113            	n203            	112.5       	250         	0.03        	0           	OPEN  	;
 p183            	n204            	n113            	209.6       	250         	0.03        	0           	OPEN  	;
 p184            	n68             	n204            	216.8       	250         	0.03        	0           	OPEN  	;
 p185            	n69             	n205            	7.019       	250         	0.03        	0           	OPEN  	;
 p186            	n205            	n206            	216.3       	250         	0.03        	0           	OPEN  	;
 p187            	n43             	n38             	3.898       	150         	0.03        	0           	OPEN  	;
 p188            	n44             	n45             	3.421       	150         	0.045       	0           	OPEN  	;
 p189            	n96             	n134            	6.57        	150         	0.03        	0           	OPEN  	;
 p19             	n27             	n28             	79.53       	150         	0.03        	0           	OPEN  	;
 p190            	n52             	n96             	6.594       	150         	0.03        	0           	OPEN  	;
 p191            	n51             	n39             	6.457       	150         	0.03        	0           	OPEN  	;
 p192            	n40             	n207            	29.11       	150         	0.03        	0           	OPEN  	;
 p193            	n53             	n54             	46.21       	150         	0.03        	0           	OPEN  	;
 p194            	n148            	n28             	25.45       	150         	0.03        	0           	OPEN  	;
 p195            	n153            	n148            	3.164       	150         	0.03        	0           	OPEN  	;
 p196            	n147            	n153            	183.4       	150         	0.03        	0           	OPEN  	;
 p197            	n134            	n159            	56.23       	100         	0.03        	0           	OPEN  	;
 p198            	n159            	n129            	60.79       	100         	0.03        	0           	OPEN  	;
 p199            	n208            	n129            	4.367       	100         	0.03        	0           	OPEN  	;
 p2              	n2              	n3              	71.48       	100         	0.03        	0           	OPEN  	;
 p20             	n29             	n30             	24.21       	60          	0.0015      	0           	OPEN  	;
 p200            	n208            	n126            	62.7        	100         	0.03        	0           	OPEN  	;
 p201            	n125            	n126            	114.5       	100         	0.03        	0           	OPEN  	;
 p202            	n125            	n108            	8.868       	100         	0.03        	0           	OPEN  	;
 p203            	n144            	n209            	54.47       	100         	0.03        	0           	OPEN  	;
 p204            	n209            	n210            	7.245       	100         	0.03        	0           	OPEN  	;
 p205            	n156            	n211            	15.99       	100         	0.03        	0           	OPEN  	;
 p206            	n212            	n78             	2.832       	100         	0.03        	0           	OPEN  	;
 p207            	n213            	n214            	84.26       	60          	0.0015      	0           	OPEN  	;
 p208            	n215            	n216            	7.8         	150         	0.03        	0           	OPEN  	;
 p209            	n206            	n217            	66.73       	250         	0.03        	0           	OPEN  	;
 p21             	n31             	n32             	3.367       	110         	0.0015      	0           	OPEN  	;
 p210            	n75             	n107            	10.85       	150         	0.03        	0           	OPEN  	;
 p211            	n218            	n219            	180.1       	100         	0.03        	0           	OPEN  	;
 p212            	n220            	n221            	59.57       	32          	0.0015      	0           	OPEN  	;
 p213            	n222            	n223            	61.66       	60          	0.0015      	0           	OPEN  	;
 p214            	n222            	n224            	128.3       	60          	0.0015      	0           	OPEN  	;
 p215            	n225            	n102            	65.16       	60          	0.0015      	0           	OPEN  	;
 p216            	n226            	n227            	70.59       	150         	0.03        	0           	OPEN  	;
 p217            	n227            	n79             	322.6       	150         	0.03        	0           	OPEN  	;
 p218            	n228            	n229            	63.95       	60          	0.0015      	0           	OPEN  	;
 p219            	n230            	n231            	1.083       	100         	0.03        	0           	OPEN  	;
 p22             	n33             	n1              	1.791       	100         	0.03        	0           	OPEN  	;
 p220            	n232            	n231            	0.4         	60          	0.0015      	0           	OPEN  	;
 p221            	n233            	n234            	52.07       	60          	0.0015      	0           	OPEN  	;
 p222            	n235            	n236            	51.8        	60          	0.0015      	0           	OPEN  	;
 p223            	n237            	n238            	52.14       	60          	0.0015      	0           	OPEN  	;
 p224            	n239            	n240            	49.05       	60          	0.0015      	0           	OPEN  	;
 p225            	n241            	n212            	52.23       	60          	0.0015      	0           	OPEN  	;
 p226            	n242            	n241            	65.48       	60          	0.0015      	0           	OPEN  	;
 p227            	n243            	n242            	111.8       	60          	0.0015      	0           	OPEN  	;
 p228            	n6              	n232            	117.2       	60          	0.0015      	0           	OPEN  	;
 p229            	n240            	n232            	351.1       	60          	0.0015      	0           	OPEN  	;
 p23             	n34             	n21             	69.51       	150         	0.03        	0           	OPEN  	;
 p230            	n244            	n233            	114.9       	60          	0.0015      	0           	OPEN  	;
 p231            	n244            	n245            	52.01       	60          	0.0015      	0           	OPEN  	;
 p232            	n245            	n246            	9.416       	60          	0.0015      	0           	OPEN  	;
 p233            	n247            	n244            	52.01       	60          	0.0015      	0           	OPEN  	;
 p234            	n248            	n247            	52.02       	100         	0.03        	0           	OPEN  	;
 p235            	n249            	n248            	52.02       	100         	0.03        	0           	OPEN  	;
 p236            	n250            	n249            	52.01       	100         	0.03        	0           	OPEN  	;
 p237            	n232            	n250            	48.91       	100         	0.03        	0           	OPEN  	;
 p238            	n251            	n252            	129.1       	60          	0.0015      	0           	OPEN  	;
 p239            	n253            	n254            	52.01       	60          	0.0015      	0           	OPEN  	;
 p24             	n21             	n36             	106.7       	150         	0.03        	0           	OPEN  	;
 p240            	n254            	n255            	52.01       	60          	0.0015      	0           	OPEN  	;
 p241            	n256            	n255            	43.98       	60          	0.0015      	0           	OPEN  	;
 p242            	n237            	n250            	117.3       	60          	0.0015      	0           	OPEN  	;
 p243            	n250            	n239            	347.3       	60          	0.0015      	0           	OPEN  	;
 p244            	n212            	n91             	247.7       	100         	0.03        	0           	OPEN  	;
 p245            	n249            	n91             	94.26       	100         	0.03        	0           	OPEN  	;
 p246            	n238            	n249            	119         	60          	0.0015      	0           	OPEN  	;
 p247            	n247            	n236            	117.2       	60          	0.0015      	0           	OPEN  	;
 p248            	n235            	n248            	119.6       	60          	0.0015      	0           	OPEN  	;
 p249            	n248            	n241            	337.1       	60          	0.0015      	0           	OPEN  	;
 p25             	n37             	n38             	23.35       	150         	0.03        	0           	OPEN  	;
 p250            	n242            	n251            	56.18       	60          	0.0015      	0           	OPEN  	;
 p251            	n251            	n253            	80.24       	60          	0.0015      	0           	OPEN  	;
 p252            	n253            	n247            	195.3       	60          	0.0015      	0           	OPEN  	;
 p253            	n244            	n254            	195.3       	60          	0.0015      	0           	OPEN  	;
 p254            	n234            	n245            	112.2       	60          	0.0015      	0           	OPEN  	;
 p255            	n245            	n255            	195.6       	60          	0.0015      	0           	OPEN  	;
 p256            	n257            	n258            	235.2       	100         	0.03        	0           	OPEN  	;
 p257            	n259            	n260            	38.37       	60          	0.0015      	0           	OPEN  	;
 p258            	n259            	n261            	82.95       	60          	0.0015      	0           	OPEN  	;
 p259            	n262            	n257            	6.453       	60          	0.0015      	0           	OPEN  	;
 p26             	n39             	n36             	13.99       	150         	0.03        	0           	OPEN  	;
 p260            	n263            	n264            	7.542       	60          	0.0015      	0           	OPEN  	;
 p261            	n265            	n266            	74.61       	60          	0.0015      	0           	OPEN  	;
 p262            	n267            	n33             	86.81       	60          	0.0015      	0           	OPEN  	;
 p263            	n268            	n269            	53.81       	60          	0.0015      	0           	OPEN  	;
 p264            	n262            	n270            	65.01       	60          	0.0015      	0           	OPEN  	;
 p265            	n268            	n265            	60.8        	60          	0.0015      	0           	OPEN  	;
 p266            	n271            	n272            	69.39       	60          	0.0015      	0           	OPEN  	;
 p267            	n270            	n229            	40.7        	60          	0.0015      	0           	OPEN  	;
 p268            	n273            	n274            	130.2       	60          	0.0015      	0           	OPEN  	;
 p269            	n274            	n262            	130.1       	60          	0.0015      	0           	OPEN  	;
 p27             	n37             	n34             	126.3       	150         	0.03        	0           	OPEN  	;
 p270            	n275            	n111            	127.4       	60          	0.0015      	0           	OPEN  	;
 p271            	n111            	n60             	9.81        	60          	0.0015      	0           	OPEN  	;
 p272            	n33             	n265            	63.52       	60          	0.0015      	0           	OPEN  	;
 p273            	n276            	n277            	65.01       	60          	0.0015      	0           	OPEN  	;
 p274            	n276            	n278            	30.71       	60          	0.0015      	0           	OPEN  	;
 p275            	n279            	n277            	210.8       	60          	0.0015      	0           	OPEN  	;
 p276            	n277            	n280            	130.1       	60          	0.0015      	0           	OPEN  	;
 p277            	n281            	n282            	65.01       	60          	0.0015      	0           	OPEN  	;
 p278            	n282            	n283            	260.2       	60          	0.0015      	0           	OPEN  	;
 p279            	n283            	n262            	64.98       	60          	0.0015      	0           	OPEN  	;
 p28             	n40             	n38             	7.816       	150         	0.03        	0           	OPEN  	;
 p280            	n284            	n274            	65.01       	60          	0.0015      	0           	OPEN  	;
 p281            	n268            	n276            	75.1        	60          	0.0015      	0           	OPEN  	;
 p282            	n284            	n270            	130         	60          	0.0015      	0           	OPEN  	;
 p283            	n270            	n285            	130.1       	60          	0.0015      	0           	OPEN  	;
 p284            	n286            	n285            	52.98       	60          	0.0015      	0           	OPEN  	;
 p285            	n286            	n271            	132.7       	60          	0.0015      	0           	OPEN  	;
 p286            	n282            	n273            	65.02       	60          	0.0015      	0           	OPEN  	;
 p287            	n287            	n288            	127         	60          	0.0015      	0           	OPEN  	;
 p288            	n260            	n288            	31.96       	60          	0.0015      	0           	OPEN  	;
 p289            	n280            	n289            	60.01       	60          	0.0015      	0           	OPEN  	;
 p29             	n41             	n42             	23.99       	110         	0.0015      	0           	OPEN  	;
 p290            	n289            	n281            	130.1       	60          	0.0015      	0           	OPEN  	;
 p291            	n289            	n263            	130.1       	60          	0.0015      	0           	OPEN  	;
 p292            	n283            	n263            	65.04       	60          	0.0015      	0           	OPEN  	;
 p293            	n263            	n277            	60.01       	60          	0.0015      	0           	OPEN  	;
 p294            	n260            	n290            	4.458       	60          	0.0015      	0           	OPEN  	;
 p295            	n283            	n291            	6.992       	60          	0.0015      	0           	OPEN  	;
 p296            	n292            	n293            	50.01       	60          	0.0015      	0           	OPEN  	;
 p297            	n293            	n294            	60.55       	60          	0.0015      	0           	OPEN  	;
 p298            	n295            	n296            	64.78       	60          	0.0015      	0           	OPEN  	;
 p299            	n297            	n298            	9.004       	60          	0.0015      	0           	OPEN  	;
 p3              	n3              	n4              	58.92       	100         	0.03        	0           	OPEN  	;
 p30             	n43             	n44             	3.999       	150         	0.03        	0           	OPEN  	;
 p300            	n299            	n300            	9.006       	60          	0.0015      	0           	OPEN  	;
 p301            	n301            	n302            	52.72       	60          	0.0015      	0           	OPEN  	;
 p302            	n303            	n222            	2.646       	60          	0.0015      	0           	OPEN  	;
 p303            	n304            	n103            	162         	60          	0.0015      	0           	OPEN  	;
 p304            	n305            	n306            	92.07       	60          	0.0015      	0           	OPEN  	;
 p305            	n307            	n308            	103.7       	60          	0.0015      	0           	OPEN  	;
 p306            	n309            	n310            	52.43       	60          	0.0015      	0           	OPEN  	;
 p307            	n311            	n312            	95.01       	60          	0.0015      	0           	OPEN  	;
 p308            	n313            	n314            	110         	60          	0.0015      	0           	OPEN  	;
 p309            	n315            	n316            	120         	60          	0.0015      	0           	OPEN  	;
 p31             	n45             	n46             	3.956       	250         	0.03        	0           	OPEN  	;
 p310            	n317            	n297            	64.94       	60          	0.0015      	0           	OPEN  	;
 p311            	n318            	n293            	190.1       	60          	0.0015      	0           	OPEN  	;
 p312            	n319            	n320            	109.4       	60          	0.0015      	0           	OPEN  	;
 p313            	n321            	n322            	62.16       	60          	0.0015      	0           	OPEN  	;
 p314            	n294            	n323            	191.3       	60          	0.0015      	0           	OPEN  	;
 p315            	n293            	n322            	85.03       	60          	0.0015      	0           	OPEN  	;
 p316            	n324            	n295            	197.1       	60          	0.0015      	0           	OPEN  	;
 p317            	n325            	n324            	6.017       	60          	0.0015      	0           	OPEN  	;
 p318            	n300            	n297            	69.42       	60          	0.0015      	0           	OPEN  	;
 p319            	n326            	n213            	88.87       	60          	0.0015      	0           	OPEN  	;
 p32             	n47             	n48             	2.874       	60          	0.0015      	0           	OPEN  	;
 p320            	n218            	n65             	124.7       	100         	0.03        	0           	OPEN  	;
 p321            	n62             	n103            	65.06       	60          	0.0015      	0           	OPEN  	;
 p322            	n327            	n225            	67.95       	60          	0.0015      	0           	OPEN  	;
 p323            	n224            	n328            	0.467       	60          	0.0015      	0           	OPEN  	;
 p324            	n327            	n329            	200.5       	60          	0.0015      	0           	OPEN  	;
 p325            	n330            	n225            	180.7       	60          	0.0015      	0           	OPEN  	;
 p326            	n331            	n332            	2.924       	60          	0.0015      	0           	OPEN  	;
 p327            	n62             	n333            	143.5       	60          	0.0015      	0           	OPEN  	;
 p328            	n41             	n223            	3.064       	60          	0.0015      	0           	OPEN  	;
 p329            	n112            	n302            	124.4       	60          	0.0015      	0           	OPEN  	;
 p33             	n49             	n50             	61.19       	125         	0.0015      	0           	OPEN  	;
 p330            	n302            	n334            	167.9       	60          	0.0015      	0           	OPEN  	;
 p331            	n310            	n334            	120.2       	60          	0.0015      	0           	OPEN  	;
 p332            	n298            	n295            	125         	60          	0.0015      	0           	OPEN  	;
 p333            	n299            	n296            	150.8       	60          	0.0015      	0           	OPEN  	;
 p334            	n300            	n335            	33.52       	60          	0.0015      	0           	OPEN  	;
 p335            	n336            	n220            	198.2       	60          	0.0015      	0           	OPEN  	;
 p336            	n220            	n337            	90.13       	60          	0.0015      	0           	OPEN  	;
 p337            	n337            	n321            	8.598       	60          	0.0015      	0           	OPEN  	;
 p338            	n338            	n339            	123.5       	125         	0.0015      	0           	OPEN  	;
 p339            	n340            	n338            	83.38       	125         	0.0015      	0           	OPEN  	;
 p34             	n51             	n52             	6.199       	150         	0.03        	0           	OPEN  	;
 p340            	n341            	n326            	3.06        	125         	0.0015      	0           	OPEN  	;
 p341            	n342            	n319            	3           	125         	0.0015      	0           	OPEN  	;
 p342            	n343            	n215            	4.693       	150         	0.03        	0           	OPEN  	;
 p343            	n344            	n215            	1.001       	150         	0.03        	0           	OPEN  	;
 p344            	n345            	n344            	89.21       	125         	0.0015      	0           	OPEN  	;
 p345            	n346            	n339            	162.1       	125         	0.0015      	0           	OPEN  	;
 p346            	n347            	n346            	5.445       	125         	0.0015      	0           	OPEN  	;
 p347            	n348            	n349            	37.23       	125         	0.0015      	0           	OPEN  	;
 p348            	n315            	n350            	3.06        	125         	0.0015      	0           	OPEN  	;
 p349            	n49             	n314            	3.06        	125         	0.0015      	0           	OPEN  	;
 p35             	n53             	n34             	7.852       	150         	0.03        	0           	OPEN  	;
 p350            	n50             	n312            	3.06        	125         	0.0015      	0           	OPEN  	;
 p351            	n309            	n338            	3           	125         	0.0015      	0           	OPEN  	;
 p352            	n305            	n347            	3.011       	125         	0.0015      	0           	OPEN  	;
 p353            	n350            	n340            	64.15       	125         	0.0015      	0           	OPEN  	;
 p354            	n49             	n350            	61.19       	125         	0.0015      	0           	OPEN  	;
 p355            	n50             	n341            	61.2        	125         	0.0015      	0           	OPEN  	;
 p356            	n341            	n345            	12.09       	125         	0.0015      	0           	OPEN  	;
 p357            	n349            	n351            	24.44       	125         	0.0015      	0           	OPEN  	;
 p358            	n351            	n342            	3           	125         	0.0015      	0           	OPEN  	;
 p359            	n307            	n342            	59.16       	125         	0.0015      	0           	OPEN  	;
 p36             	n54             	n55             	54.1        	150         	0.03        	0           	OPEN  	;
 p360            	n70             	n307            	1.627       	125         	0.0015      	0           	OPEN  	;
 p361            	n73             	n70             	60.18       	125         	0.0015      	0           	OPEN  	;
 p362            	n347            	n73             	3.106       	125         	0.0015      	0           	OPEN  	;
 p363            	n301            	n347            	3.226       	125         	0.0015      	0           	OPEN  	;
 p364            	n99             	n352            	31.74       	100         	0.03        	0           	OPEN  	;
 p365            	n334            	n353            	51.43       	150         	0.03        	0           	OPEN  	;
 p366            	n226            	n288            	2.404       	150         	0.03        	0           	OPEN  	;
 p367            	n354            	n226            	2.121       	150         	0.03        	0           	OPEN  	;
 p368            	n355            	n288            	50.39       	150         	0.03        	0           	OPEN  	;
 p369            	n355            	n258            	6.676       	100         	0.03        	0           	OPEN  	;
 p37             	n55             	n27             	54.04       	150         	0.03        	0           	OPEN  	;
 p370            	n356            	n287            	3.001       	150         	0.03        	0           	OPEN  	;
 p371            	n275            	n356            	3.001       	150         	0.03        	0           	OPEN  	;
 p372            	n272            	n357            	3.001       	100         	0.03        	0           	OPEN  	;
 p373            	n258            	n357            	65.04       	100         	0.03        	0           	OPEN  	;
 p374            	n352            	n258            	66.67       	100         	0.03        	0           	OPEN  	;
 p375            	n352            	n358            	65.85       	100         	0.03        	0           	OPEN  	;
 p376            	n279            	n358            	60.79       	100         	0.03        	0           	OPEN  	;
 p377            	n1              	n279            	73.57       	100         	0.03        	0           	OPEN  	;
 p378            	n359            	n357            	111.7       	100         	0.03        	0           	OPEN  	;
 p379            	n290            	n360            	4.988       	150         	0.03        	0           	OPEN  	;
 p38             	n56             	n57             	8.299       	60          	0.0015      	0           	OPEN  	;
 p380            	n360            	n334            	2.816       	150         	0.03        	0           	OPEN  	;
 p381            	n361            	n346            	7.362       	150         	0.03        	0           	OPEN  	;
 p382            	n290            	n354            	31.95       	150         	0.03        	0           	OPEN  	;
 p383            	n361            	n356            	60.94       	150         	0.03        	0           	OPEN  	;
 p384            	n358            	n362            	7.06        	100         	0.03        	0           	OPEN  	;
 p385            	n353            	n339            	4.783       	125         	0.0015      	0           	OPEN  	;
 p386            	n358            	n264            	212.9       	100         	0.03        	0           	OPEN  	;
 p387            	n291            	n99             	192.3       	100         	0.03        	0           	OPEN  	;
 p388            	n285            	n359            	10.35       	60          	0.0015      	0           	OPEN  	;
 p389            	n362            	n356            	49.91       	150         	0.03        	0           	OPEN  	;
 p39             	n58             	n59             	4.587       	250         	0.03        	0           	OPEN  	;
 p390            	n294            	n317            	109.3       	110         	0.0015      	0           	OPEN  	;
 p391            	n348            	n317            	5.184       	110         	0.0015      	0           	OPEN  	;
 p392            	n363            	n42             	150         	110         	0.0015      	0           	OPEN  	;
 p393            	n363            	n364            	61.68       	110         	0.0015      	0           	OPEN  	;
 p394            	n364            	n71             	130.5       	110         	0.0015      	0           	OPEN  	;
 p395            	n303            	n364            	174.4       	110         	0.0015      	0           	OPEN  	;
 p396            	n72             	n365            	133.8       	110         	0.0015      	0           	OPEN  	;
 p397            	n366            	n365            	3           	110         	0.0015      	0           	OPEN  	;
 p398            	n61             	n33             	56.58       	110         	0.0015      	0           	OPEN  	;
 p399            	n32             	n61             	2.1         	110         	0.0015      	0           	OPEN  	;
 p4              	n4              	n5              	81.21       	100         	0.03        	0           	OPEN  	;
 p40             	n60             	n61             	0.199       	60          	0.0015      	0           	OPEN  	;
 p400            	n31             	n366            	63.31       	110         	0.0015      	0           	OPEN  	;
 p401            	n331            	n366            	174.2       	110         	0.0015      	0           	OPEN  	;
 p402            	n328            	n31             	176.7       	110         	0.0015      	0           	OPEN  	;
 p403            	n172            	n190            	20.42       	60          	0.0015      	0           	OPEN  	;
 p404            	n367            	n172            	19.4        	60          	0.0015      	0           	OPEN  	;
 p405            	n67             	n368            	1.629       	110         	0.0015      	0           	OPEN  	;
 p406            	n104            	n368            	12.12       	110         	0.0015      	0           	OPEN  	;
 p407            	n106            	n105            	51.81       	110         	0.0015      	0           	OPEN  	;
 p408            	n109            	n167            	63.82       	60          	0.0015      	0           	OPEN  	;
 p409            	n167            	n169            	59.87       	60          	0.0015      	0           	OPEN  	;
 p41             	n62             	n63             	2.811       	60          	0.0015      	0           	OPEN  	;
 p410            	n169            	n170            	37.61       	60          	0.0015      	0           	OPEN  	;
 p411            	n369            	n210            	230.7       	100         	0.03        	0           	OPEN  	;
 p412            	n210            	n194            	171.5       	60          	0.0015      	0           	OPEN  	;
 p413            	n117            	n118            	5.853       	60          	0.0015      	0           	OPEN  	;
 p414            	n211            	n109            	33.34       	100         	0.03        	0           	OPEN  	;
 p415            	n193            	n367            	81.82       	60          	0.0015      	0           	OPEN  	;
 p416            	n189            	n88             	52.41       	60          	0.0015      	0           	OPEN  	;
 p42             	n63             	n64             	0.329       	110         	0.0015      	0           	OPEN  	;
 p43             	n65             	n63             	3.733       	110         	0.0015      	0           	OPEN  	;
 p44             	n66             	n67             	2.157       	110         	0.0015      	0           	OPEN  	;
 p45             	n68             	n69             	3.148       	250         	0.03        	0           	OPEN  	;
 p46             	n70             	n71             	5.005       	110         	0.0015      	0           	OPEN  	;
 p47             	n72             	n73             	1.509       	110         	0.0015      	0           	OPEN  	;
 p48             	n74             	n75             	1.765       	150         	0.03        	0           	OPEN  	;
 p49             	n76             	n77             	0.599       	110         	0.0015      	0           	OPEN  	;
 p5              	n6              	n7              	2.731       	60          	0.0015      	0           	OPEN  	;
 p50             	n78             	n79             	0.136       	150         	0.03        	0           	OPEN  	;
 p51             	n79             	n80             	93.2        	60          	0.0015      	0           	OPEN  	;
 p52             	n81             	n82             	30.3        	60          	0.0015      	0           	OPEN  	;
 p53             	n82             	n83             	30.3        	60          	0.0015      	0           	OPEN  	;
 p54             	n84             	n85             	27.67       	60          	0.0015      	0           	OPEN  	;
 p55             	n85             	n81             	27.67       	60          	0.0015      	0           	OPEN  	;
 p56             	n86             	n87             	23.03       	60          	0.0015      	0           	OPEN  	;
 p57             	n87             	n84             	23.03       	60          	0.0015      	0           	OPEN  	;
 p58             	n88             	n89             	9.395       	60          	0.0015      	0           	OPEN  	;
 p59             	n90             	n91             	4.001       	100         	0.03        	0           	OPEN  	;
 p6              	n8              	n9              	69.51       	60          	0.0015      	0           	OPEN  	;
 p60             	n92             	n42             	2.933       	110         	0.0015      	0           	OPEN  	;
 p61             	n93             	n94             	3.103       	110         	0.0015      	0           	OPEN  	;
 p62             	n95             	n96             	5.826       	110         	0.0015      	0           	OPEN  	;
 p63             	n97             	n57             	3.046       	110         	0.0015      	0           	OPEN  	;
 p64             	n28             	n98             	3.105       	110         	0.0015      	0           	OPEN  	;
 p65             	n99             	n100            	0.887       	100         	0.03        	0           	OPEN  	;
 p66             	n101            	n91             	3.75        	100         	0.03        	0           	OPEN  	;
 p67             	n102            	n103            	0.836       	60          	0.0015      	0           	OPEN  	;
 p68             	n66             	n68             	5.379       	110         	0.0015      	0           	OPEN  	;
 p69             	n104            	n105            	19.54       	110         	0.0015      	0           	OPEN  	;
 p7              	n10             	n11             	9.202       	150         	0.03        	0           	OPEN  	;
 p70             	n106            	n64             	162.2       	110         	0.0015      	0           	OPEN  	;
 p71             	n40             	n12             	3.146       	150         	0.03        	0           	OPEN  	;
 p72             	n107            	n32             	6.211       	110         	0.0015      	0           	OPEN  	;
 p73             	n93             	n108            	12.61       	100         	0.03        	0           	OPEN  	;
 p74             	n109            	n110            	5.869       	60          	0.0015      	0           	OPEN  	;
 p75             	n77             	n75             	3.037       	110         	0.0015      	0           	OPEN  	;
 p76             	n111            	n112            	12.78       	60          	0.0015      	0           	OPEN  	;
 p77             	n113            	n59             	15.62       	250         	0.03        	0           	OPEN  	;
 p78             	n114            	n47             	13.62       	60          	0.0015      	0           	OPEN  	;
 p79             	n93             	n48             	5.737       	60          	0.0015      	0           	OPEN  	;
 p80             	n115            	n116            	5.678       	60          	0.0015      	0           	OPEN  	;
 p81             	n115            	n117            	260.3       	60          	0.0015      	0           	OPEN  	;
 p82             	n118            	n119            	74.15       	60          	0.0015      	0           	OPEN  	;
 p83             	n48             	n119            	4.995       	60          	0.0015      	0           	OPEN  	;
 p84             	n120            	n121            	6.541       	60          	0.0015      	0           	OPEN  	;
 p85             	n39             	n122            	4.357       	150         	0.03        	0           	OPEN  	;
 p86             	n120            	n123            	9.763       	60          	0.0015      	0           	OPEN  	;
 p87             	n124            	n125            	51.09       	60          	0.0015      	0           	OPEN  	;
 p88             	n126            	n121            	224         	60          	0.0015      	0           	OPEN  	;
 p89             	n126            	n127            	23.06       	60          	0.0015      	0           	OPEN  	;
 p9              	n10             	n14             	3.102       	110         	0.0015      	0           	OPEN  	;
 p90             	n128            	n129            	81          	60          	0.0015      	0           	OPEN  	;
 p91             	n130            	n29             	3.57        	60          	0.0015      	0           	OPEN  	;
 p92             	n131            	n132            	3.323       	60          	0.0015      	0           	OPEN  	;
 p94             	n134            	n131            	99.5        	60          	0.0015      	0           	OPEN  	;
 p95             	n135            	n136            	3.226       	60          	0.0015      	0           	OPEN  	;
 p96             	n135            	n137            	0.345       	60          	0.0015      	0           	OPEN  	;
 p97             	n138            	n139            	0.691       	60          	0.0015      	0           	OPEN  	;
 p98             	n140            	n138            	4.059       	60          	0.0015      	0           	OPEN  	;
 p99             	n141            	n130            	0.704       	60          	0.0015      	0           	OPEN  	;
 4               	n200            	2               	1           	250         	0.03        	0           	OPEN  	;

[PUMPS]
;ID              	Node1           	Node2           	Parameters
 3               	3               	2               	POWER 25	;

[VALVES]
;ID              	Node1           	Node2           	Diameter    	Type	Setting     	MinorLoss   
 1               	n217            	n74             	12          	PRV 	20          	0           	;

[TAGS]

[DEMANDS]
;Junction        	Demand      	Pattern         	Category

[STATUS]
;ID              	Status/Setting
 3               	Open

[PATTERNS]
;ID              	Multipliers
;
 1               	0.2         	0.4         	0.6         	0.8         	1           	1.2         
 1               	1.4         	1.6         	1.3         	1.1         	1           	0.8         
 1               	1.1         	1.3         	1.4         	1.5         	1.7         	1.8         
 1               	1.8         	2           	1.4         	1.3         	1.1         	0.9         

[CURVES]
;ID              	X-Value     	Y-Value

[CONTROLS]


[RULES]


[ENERGY]
 Global Efficiency  	75
 Global Price       	0
 Demand Charge      	0

[EMITTERS]
;Junction        	Coefficient

[QUALITY]
;Node            	InitQual

[SOURCES]
;Node            	Type        	Quality     	Pattern

[REACTIONS]
;Type     	Pipe/Tank       	Coefficient


[REACTIONS]
 Order Bulk            	1
 Order Tank            	1
 Order Wall            	1
 Global Bulk           	0
 Global Wall           	0
 Limiting Potential    	0
 Roughness Correlation 	0

[MIXING]
;Tank            	Model

[TIMES]
 Duration           	24:00
 Hydraulic Timestep 	1:00
 Quality Timestep   	0:05 
 Pattern Timestep   	1:00 
 Pattern Start      	0:00 
 Report Timestep    	1:00 
 Report Start       	0:00 
 Start ClockTime    	12:00 AM
 Statistic          	NONE

[REPORT]
 Status             	No
 Summary            	No
 Page               	0

[OPTIONS]
 Units              	LPS
 Headloss           	D-W
 Specific Gravity   	1
 Viscosity          	1
 Trials             	40
 Accuracy           	0.001
 CHECKFREQ          	2
 MAXCHECK           	10
 DAMPLIMIT          	0
 Unbalanced         	Continue 10
 Pattern            	1
 Demand Multiplier  	1.0
 Emitter Exponent   	0.5
 Quality            	NONE mg/L
 Diffusivity        	1
 Tolerance          	0.01

[COORDINATES]
;Node            	X-Coord           	Y-Coord
n1              	795736.133        	7592722.723       
n10             	796405.828        	7593190.219       
n100            	795539.466        	7592717.946       
n101            	795087.310        	7592809.818       
n102            	796107.163        	7592600.702       
n103            	796107.072        	7592599.871       
n104            	796068.359        	7592726.894       
n105            	796087.669        	7592729.825       
n106            	796120.645        	7592697.272       
n107            	795754.873        	7592666.896       
n108            	796267.466        	7592746.455       
n109            	796637.145        	7593133.840       
n11             	796404.012        	7593199.234       
n110            	796631.743        	7593136.127       
n111            	795738.397        	7592665.550       
n112            	795740.728        	7592652.990       
n113            	796208.495        	7592978.701       
n114            	796248.655        	7592759.882       
n115            	796201.744        	7592402.515       
n116            	796196.103        	7592403.115       
n117            	796229.235        	7592661.335       
n118            	796230.332        	7592667.078       
n119            	796250.203        	7592738.512       
n12             	796658.423        	7593083.177       
n120            	796028.391        	7592824.853       
n121            	796026.321        	7592831.052       
n122            	796317.264        	7593024.963       
n123            	796036.527        	7592819.467       
n124            	796316.026        	7592764.823       
n125            	796265.887        	7592755.180       
n126            	796247.105        	7592868.140       
n127            	796243.739        	7592890.948       
n128            	796312.238        	7592796.967       
n129            	796313.341        	7592877.943       
n13             	796655.479        	7593082.584       
n130            	796031.015        	7592942.565       
n131            	796217.115        	7592978.494       
n132            	796214.175        	7592976.948       
n133            	796216.431        	7592983.219       
n134            	796315.198        	7592994.911       
n135            	796385.279        	7593386.978       
n136            	796383.145        	7593389.390       
n137            	796384.945        	7593386.894       
n138            	796221.780        	7593330.319       
n139            	796221.111        	7593330.151       
n14             	796402.785        	7593189.621       
n140            	796221.172        	7593334.328       
n141            	796030.341        	7592942.362       
n142            	796644.410        	7593367.117       
n143            	796448.621        	7593327.715       
n144            	796686.104        	7593312.473       
n145            	796676.427        	7593310.473       
n146            	796679.983        	7593366.204       
n147            	796629.700        	7593356.179       
n148            	796450.794        	7593316.925       
n149            	796630.324        	7593353.079       
n15             	796438.817        	7593050.160       
n150            	796494.149        	7593061.304       
n151            	796317.328        	7593025.696       
n153            	796450.169        	7593320.025       
n154            	796442.479        	7593318.476       
n156            	796625.699        	7593087.795       
n157            	796316.497        	7593067.802       
n158            	796315.004        	7593072.342       
n159            	796314.404        	7592938.707       
n16             	796433.858        	7593049.162       
n160            	796310.534        	7592938.722       
n161            	796230.499        	7592925.902       
n162            	796229.709        	7592929.827       
n163            	796231.095        	7592921.991       
n164            	796216.116        	7593000.837       
n165            	796215.753        	7592971.309       
n166            	796654.759        	7593195.063       
n167            	796659.269        	7593193.682       
n168            	796666.068        	7593253.271       
n169            	796674.298        	7593251.621       
n17             	796425.101        	7593094.513       
n170            	796680.820        	7593288.657       
n171            	796678.351        	7593421.017       
n172            	796426.970        	7593423.355       
n173            	796430.716        	7593416.625       
n174            	796374.444        	7593371.445       
n175            	796208.245        	7593272.465       
n176            	796214.968        	7593272.660       
n177            	796216.057        	7593217.763       
n178            	796209.760        	7593217.651       
n179            	796211.337        	7593162.958       
n18             	796430.060        	7593095.512       
n180            	796217.856        	7593163.009       
n181            	796219.258        	7593108.176       
n182            	796213.016        	7593108.147       
n183            	796221.767        	7593053.565       
n184            	796214.505        	7593053.528       
n185            	796398.060        	7593254.414       
n186            	796408.726        	7593201.447       
n187            	796207.775        	7593290.952       
n188            	796199.824        	7593330.068       
n189            	796322.861        	7593354.498       
n19             	796414.434        	7593147.481       
n190            	796409.738        	7593412.410       
n191            	796015.853        	7592889.904       
n192            	796592.650        	7593464.741       
n193            	796522.676        	7593454.949       
n194            	796738.715        	7593493.438       
n195            	796387.395        	7593307.383       
n196            	796439.503        	7593372.993       
n198            	796460.836        	7593267.057       
n2              	795725.312        	7592790.201       
n20             	796419.393        	7593148.479       
n200            	796648.873        	7593073.511       
n201            	796646.983        	7593082.883       
n202            	796319.202        	7593016.835       
n203            	796318.960        	7592999.403       
n204            	796002.153        	7592942.276       
n205            	796046.434        	7592721.612       
n206            	795833.952        	7592681.075       
n207            	796686.316        	7593092.034       
n208            	796308.976        	7592877.957       
n209            	796739.484        	7593323.156       
n21             	796435.407        	7593041.473       
n210            	796746.706        	7593322.639       
n211            	796623.161        	7593103.581       
n212            	795093.496        	7592562.201       
n213            	795092.789        	7592550.441       
n214            	795009.275        	7592539.318       
n215            	795021.155        	7592514.687       
n216            	795016.398        	7592508.505       
n217            	795768.276        	7592669.294       
n218            	796088.415        	7592408.186       
n219            	796267.970        	7592396.552       
n220            	795887.554        	7592363.859       
n221            	795879.863        	7592422.911       
n222            	795947.099        	7592569.964       
n223            	795958.366        	7592509.345       
n224            	795923.659        	7592696.062       
n225            	796114.256        	7592665.471       
n226            	795482.941        	7592615.351       
n227            	795413.546        	7592602.470       
n228            	795299.408        	7592912.617       
n229            	795363.337        	7592913.541       
n23             	796453.751        	7593262.496       
n230            	794977.485        	7592899.688       
n231            	794978.566        	7592899.739       
n232            	794978.966        	7592899.758       
n233            	795231.056        	7593024.755       
n234            	795283.109        	7593024.483       
n235            	795127.218        	7593025.297       
n236            	795179.003        	7593025.027       
n237            	795023.003        	7593018.879       
n238            	795075.003        	7593022.642       
n239            	795041.750        	7592554.834       
n24             	796450.095        	7593264.893       
n240            	794993.042        	7592549.070       
n241            	795145.260        	7592569.121       
n242            	795210.159        	7592577.798       
n243            	795320.917        	7592592.598       
n244            	795235.660        	7592910.061       
n245            	795287.606        	7592912.446       
n246            	795297.016        	7592912.582       
n247            	795183.701        	7592907.976       
n248            	795131.743        	7592905.890       
n249            	795079.785        	7592903.805       
n25             	796452.533        	7593268.551       
n250            	795027.827        	7592901.719       
n251            	795202.575        	7592633.457       
n252            	795330.549        	7592650.565       
n253            	795191.531        	7592712.919       
n254            	795243.489        	7592715.005       
n255            	795295.447        	7592717.090       
n256            	795339.380        	7592718.853       
n257            	795469.161        	7592909.125       
n258            	795473.766        	7592673.993       
n259            	795413.378        	7592604.899       
n26             	796456.124        	7593266.107       
n260            	795451.124        	7592611.766       
n261            	795331.215        	7592593.595       
n262            	795469.013        	7592915.573       
n263            	795598.978        	7592918.564       
n264            	795599.152        	7592911.026       
n265            	795727.071        	7592785.626       
n266            	795800.418        	7592799.241       
n267            	795823.236        	7592738.892       
n268            	795725.673        	7592846.391       
n269            	795778.569        	7592856.210       
n27             	796471.503        	7593214.089       
n270            	795404.029        	7592914.129       
n271            	795338.279        	7592651.181       
n272            	795406.863        	7592661.699       
n273            	795463.030        	7593175.504       
n274            	795466.021        	7593045.539       
n275            	795613.201        	7592642.132       
n276            	795723.945        	7592921.441       
n277            	795658.962        	7592919.945       
n278            	795754.637        	7592922.147       
n279            	795663.811        	7592709.299       
n28             	796455.759        	7593291.980       
n280            	795655.971        	7593049.911       
n281            	795592.995        	7593178.496       
n282            	795528.013        	7593177.000       
n283            	795533.967        	7592917.068       
n284            	795401.038        	7593044.043       
n285            	795407.021        	7592784.112       
n286            	795354.062        	7592782.893       
n287            	795607.307        	7592641.009       
n288            	795482.518        	7592617.718       
n289            	795595.987        	7593048.530       
n29             	796030.421        	7592946.084       
n290            	795451.911        	7592607.379       
n291            	795534.154        	7592910.080       
n292            	795807.039        	7592316.717       
n293            	795759.548        	7592301.077       
n294            	795702.052        	7592282.143       
n295            	795641.600        	7592262.235       
n296            	795580.074        	7592241.974       
n297            	795602.896        	7592389.839       
n298            	795602.340        	7592380.856       
n299            	795533.057        	7592385.145       
n3              	795723.290        	7592861.633       
n30             	796006.556        	7592942.090       
n300            	795533.613        	7592394.128       
n301            	795627.795        	7592578.672       
n302            	795618.354        	7592630.536       
n303            	795944.498        	7592569.478       
n304            	795947.888        	7592570.112       
n305            	795631.281        	7592576.273       
n306            	795721.765        	7592593.245       
n307            	795639.998        	7592511.634       
n308            	795741.864        	7592531.233       
n309            	795341.187        	7592529.137       
n31             	795749.832        	7592662.201       
n310            	795334.523        	7592581.134       
n311            	795153.048        	7592552.602       
n312            	795165.702        	7592458.449       
n313            	795212.116        	7592563.548       
n314            	795226.768        	7592454.528       
n315            	795287.834        	7592450.607       
n316            	795271.849        	7592569.538       
n317            	795667.711        	7592385.826       
n318            	795820.219        	7592121.306       
n319            	795653.540        	7592453.990       
n32             	795748.841        	7592665.419       
n320            	795760.978        	7592474.271       
n321            	795794.929        	7592377.951       
n322            	795732.898        	7592381.791       
n323            	795761.685        	7592100.691       
n324            	795702.852        	7592075.315       
n325            	795697.137        	7592073.433       
n326            	795104.633        	7592462.370       
n327            	796121.817        	7592733.000       
n328            	795923.201        	7592695.975       
n329            	795924.805        	7592696.276       
n33             	795737.894        	7592723.050       
n330            	795936.612        	7592632.541       
n331            	795932.640        	7592631.805       
n332            	795935.514        	7592632.338       
n333            	795959.273        	7592509.509       
n334            	795453.290        	7592599.699       
n335            	795500.155        	7592396.199       
n336            	796085.258        	7592350.813       
n337            	795797.623        	7592369.793       
n338            	795341.568        	7592526.162       
n339            	795463.707        	7592544.460       
n34             	796503.503        	7593055.186       
n340            	795352.252        	7592443.465       
n341            	795105.041        	7592459.337       
n342            	795650.593        	7592453.433       
n343            	795017.605        	7592517.751       
n344            	795021.951        	7592514.082       
n345            	795092.971        	7592460.112       
n346            	795623.025        	7592574.485       
n347            	795628.373        	7592575.498       
n348            	795666.220        	7592390.789       
n349            	795655.506        	7592426.440       
n350            	795288.241        	7592447.575       
n351            	795651.130        	7592450.482       
n352            	795539.310        	7592686.188       
n353            	795462.862        	7592549.168       
n354            	795483.314        	7592613.263       
n355            	795473.645        	7592667.319       
n356            	795610.252        	7592641.579       
n357            	795409.828        	7592662.154       
n358            	795604.050        	7592698.206       
n359            	795407.259        	7592773.770       
n36             	796330.861        	7593020.419       
n360            	795452.792        	7592602.470       
n361            	795621.648        	7592581.718       
n362            	795604.927        	7592691.200       
n363            	795784.270        	7592477.078       
n364            	795772.990        	7592537.713       
n365            	795761.957        	7592597.019       
n366            	795761.409        	7592599.969       
n367            	796444.045        	7593432.552       
n368            	796058.233        	7592731.927       
n369            	796689.871        	7593100.186       
n37             	796627.247        	7593080.106       
n38             	796650.129        	7593084.732       
n39             	796316.882        	7593020.624       
n4              	795721.916        	7592920.507       
n40             	796657.793        	7593086.257       
n41             	795955.354        	7592508.786       
n42             	795931.769        	7592504.415       
n43             	796650.875        	7593080.907       
n44             	796651.667        	7593076.989       
n45             	796648.312        	7593076.332       
n46             	796647.521        	7593080.207       
n47             	796248.894        	7592746.269       
n48             	796249.377        	7592743.437       
n49             	795227.175        	7592451.496       
n5              	795803.093        	7592922.476       
n50             	795166.110        	7592455.416       
n51             	796316.088        	7593014.219       
n52             	796315.327        	7593008.070       
n53             	796501.954        	7593062.876       
n54             	796492.836        	7593108.154       
n55             	796482.164        	7593161.148       
n56             	796645.942        	7593359.424       
n57             	796637.813        	7593357.804       
n58             	796204.555        	7592998.508       
n59             	796205.428        	7592994.008       
n6              	794974.271        	7593016.737       
n60             	795748.024        	7592667.387       
n61             	795748.220        	7592667.424       
n62             	796100.366        	7592535.169       
n63             	796103.126        	7592535.684       
n64             	796103.150        	7592536.012       
n65             	796102.723        	7592531.977       
n66             	796054.567        	7592731.810       
n67             	796056.679        	7592732.247       
n68             	796049.300        	7592730.715       
n69             	796050.014        	7592727.649       
n7              	794974.161        	7593019.465       
n70             	795639.707        	7592513.234       
n71             	795644.625        	7592514.137       
n72             	795630.412        	7592572.716       
n73             	795628.929        	7592572.443       
n74             	795767.291        	7592669.118       
n75             	795765.551        	7592668.827       
n76             	795764.859        	7592672.396       
n77             	795764.975        	7592671.808       
n78             	795093.876        	7592559.394       
n79             	795093.894        	7592559.259       
n8              	796504.126        	7593052.092       
n80             	795001.535        	7592546.774       
n81             	796685.682        	7593421.429       
n82             	796682.749        	7593451.589       
n83             	796678.067        	7593481.528       
n84             	796687.155        	7593366.121       
n85             	796687.045        	7593393.792       
n86             	796684.298        	7593320.170       
n87             	796686.296        	7593343.110       
n88             	796369.510        	7593377.514       
n89             	796376.576        	7593383.704       
n9              	796436.031        	7593038.373       
n90             	795087.561        	7592809.830       
n91             	795083.563        	7592809.667       
n92             	795932.303        	7592501.531       
n93             	796255.033        	7592744.380       
n94             	796255.543        	7592741.321       
n95             	796320.917        	7593002.611       
n96             	796315.206        	7593001.480       
n97             	796638.407        	7593354.819       
n98             	796458.801        	7593292.578       
n99             	795538.579        	7592717.920       
3               	796647.700        	7593066.891       
2               	796651.766        	7593071.695       

[VERTICES]
;Link            	X-Coord           	Y-Coord
p403            	796422.587        	7593420.738       
p403            	796418.253        	7593418.041       
p403            	796413.970        	7593415.264       
p404            	796439.717        	7593430.365       
p404            	796435.427        	7593428.103       
p404            	796431.178        	7593425.766       
p405            	796057.084        	7592732.289       
p405            	796057.489        	7592732.248       
p405            	796057.877        	7592732.125       
p406            	796066.062        	7592726.681       
p406            	796063.793        	7592727.094       
p406            	796061.718        	7592728.101       
p406            	796059.991        	7592729.630       
p407            	796120.138        	7592703.729       
p407            	796118.334        	7592709.949       
p407            	796115.309        	7592715.675       
p407            	796111.187        	7592720.670       
p407            	796106.139        	7592724.727       
p407            	796100.374        	7592727.678       
p407            	796094.131        	7592729.401       
p408            	796648.472        	7593162.101       
p409            	796667.120        	7593221.050       
p410            	796677.843        	7593270.089       
p411            	796698.289        	7593119.489       
p411            	796709.035        	7593147.447       
p411            	796718.531        	7593175.853       
p411            	796726.759        	7593204.653       
p411            	796733.703        	7593233.789       
p411            	796739.349        	7593263.204       
p411            	796743.686        	7593292.840       
p412            	796748.451        	7593351.161       
p412            	796748.964        	7593379.731       
p412            	796748.245        	7593408.297       
p412            	796746.294        	7593436.806       
p412            	796743.116        	7593465.203       
p413            	796229.419        	7592662.786       
p413            	796229.663        	7592664.229       
p413            	796229.968        	7592665.660       
p414            	796626.811        	7593111.074       
p414            	796630.358        	7593118.616       
p414            	796633.803        	7593126.205       
p415            	796502.729        	7593450.411       
p415            	796482.958        	7593445.162       
p415            	796463.389        	7593439.206       
p416            	796339.501        	7593359.815       
p416            	796355.166        	7593367.544       

[LABELS]
;X-Coord             Y-Coord             Label & Anchor Node

[BACKDROP]
  DIMENSIONS  	794885.534        	7592002.433       	796835.333        	7593564.438       
 UNITS          	None
 FILE           	
 OFFSET         	0.00            	0.00            

[END]
